LAMMPS (29 Sep 2021)
# PREREQUISITES:
#
#     You must use moltemplate.sh to create 3 files:
#        system.data  system.in.init  system.in.settings
#     (Follow the instructions in README_setup.sh,
#      or run the file as a script using ./README_setup.sh)

# ------------------------------- Initialization Section --------------------

include         system.in.init
  atom_style full
  units real
  bond_style harmonic
  angle_style harmonic
  dihedral_style opls
  improper_style harmonic
  pair_style lj/cut/coul/long 11.0 11.0
  pair_modify mix geometric
  special_bonds lj/coul 0.0 0.0 0.5
  kspace_style pppm 0.0001

# ------------------------------- Atom Definition Section -------------------

read_data       system.data
Reading data file ...
  orthogonal box = (0.0000000 0.0000000 0.0000000) to (62.400000 62.400000 62.400000)
  2 by 2 by 2 MPI processor grid
  reading atoms ...
  168 atoms
  scanning bonds ...
  4 = max bonds/atom
  scanning angles ...
  6 = max angles/atom
  scanning dihedrals ...
  9 = max dihedrals/atom
  reading bonds ...
  156 bonds
  reading angles ...
  288 angles
  reading dihedrals ...
  324 dihedrals
Finding 1-2 1-3 1-4 neighbors ...
  special bond factors lj:    0        0        0.5     
  special bond factors coul:  0        0        0.5     
     4 = max # of 1-2 neighbors
     6 = max # of 1-3 neighbors
     9 = max # of 1-4 neighbors
    13 = max # of special neighbors
  special bonds CPU = 0.001 seconds
  read_data CPU = 0.014 seconds

# ------------------------------- Settings Section --------------------------

include         system.in.settings
  pair_coeff 1 1 0.066 3.5
  pair_coeff 2 2 0.066 3.5
  pair_coeff 3 3 0.03 2.5
  bond_coeff 1 268.0 1.529
  bond_coeff 2 340.0 1.09
  angle_coeff 1 58.35 112.7
  angle_coeff 2 33.0 107.8
  angle_coeff 3 37.5 110.7
  dihedral_coeff 1 1.3 -0.05 0.2 0.0
  dihedral_coeff 2 0.0 0.0 0.3 0.0
  dihedral_coeff 3 0.0 0.0 0.3 0.0
  set type 1 charge -0.18
Setting atom values ...
  24 settings made for charge
  set type 2 charge -0.12
Setting atom values ...
  24 settings made for charge
  set type 3 charge 0.06
Setting atom values ...
  120 settings made for charge
include         system.in.charges

# ------------------------------- Run Section -------------------------------

# To avoid explosions, I have a 4-step equilibraion process (expand, minimize,
# reorient, compress).  The system (as defined in the "system.data" file)
# is already expanded.  That means there are 3 steps left:

dump            dumpeq1 all custom 50 traj_eq1_min.lammpstrj id mol type x y z ix iy iz
thermo_style    custom step time temp press vol density pe etotal epair ebond eangle edihed
thermo          50
thermo_modify   norm yes

# -- Equilibration: part 1: initial minimization --

# Note: In general, it's always a good idea to minimize the system at first.

minimize 1.0e-5 1.0e-7 100000 400000
WARNING: Using 'neigh_modify every 1 delay 0 check yes' setting during minimization (../min.cpp:188)
PPPM initialization ...
  using 12-bit tables for long-range coulomb (../kspace.cpp:340)
  G vector (1/distance) = 0.077713503
  grid = 4 4 4
  stencil order = 5
  estimated absolute RMS force accuracy = 0.033197132
  estimated relative force accuracy = 9.9972176e-05
  using double precision KISS FFT
  3d grid and FFT values/proc = 343 8
Neighbor list info ...
  update every 1 steps, delay 0 steps, check yes
  max neighbors/atom: 2000, page size: 100000
  master list distance cutoff = 13
  ghost atom cutoff = 13
  binsize = 6.5, bins = 10 10 10
  1 neighbor lists, perpetual/occasional/extra = 1 0 0
  (1) pair lj/cut/coul/long, perpetual
      attributes: half, newton on
      pair build: half/bin/newton
      stencil: half/bin/3d
      bin: standard
Per MPI rank memory allocation (min/avg/max) = 13.23 | 14.16 | 14.81 Mbytes
Step Time Temp Press Volume Density PotEng TotEng E_pair E_bond E_angle E_dihed 
       0            0            0   -22.469697    242970.62  0.004766856   0.16663352   0.16663352   0.10261751  0.004253558  0.059762447 1.4122301e-16 
      50           50            0   -2.3518543    242970.62  0.004766856 -0.0061535273 -0.0061535273 -0.023137078 0.00079101911  0.014452059 0.0017404729 
      61           61            0    -5.626192    242970.62  0.004766856 -0.0076420745 -0.0076420745 -0.026541446 0.0010279999  0.016203653 0.0016677178 
Loop time of 0.0738082 on 8 procs for 61 steps with 168 atoms

98.8% CPU use with 8 MPI tasks x no OpenMP threads

Minimization stats:
  Stopping criterion = energy tolerance
  Energy initial, next-to-last, final = 
     0.166633517576281 -0.0076420659999959 -0.00764207447661148
  Force two-norm initial, final = 101.42457 7.9244281
  Force max component initial, final = 14.922581 1.1855682
  Final line search alpha, max atom move = 0.042172023 0.049997810
  Iterations, force evaluations = 61 178

MPI task timing breakdown:
Section |  min time  |  avg time  |  max time  |%varavg| %total
---------------------------------------------------------------
Pair    | 1.9912e-05 | 0.0075242  | 0.025478   |  10.6 | 10.19
Bond    | 3.5224e-05 | 0.0040826  | 0.026393   |  13.5 |  5.53
Kspace  | 0.017562   | 0.057845   | 0.06942    |   7.1 | 78.37
Neigh   | 0          | 0          | 0          |   0.0 |  0.00
Comm    | 0.0016621  | 0.0021096  | 0.0025885  |   0.7 |  2.86
Output  | 0.00034923 | 0.00035182 | 0.00036884 |   0.0 |  0.48
Modify  | 0          | 0          | 0          |   0.0 |  0.00
Other   |            | 0.001895   |            |       |  2.57

Nlocal:        21.0000 ave         106 max           0 min
Histogram: 5 1 0 1 0 0 0 0 0 1
Nghost:        139.000 ave         162 max          62 min
Histogram: 1 0 0 0 0 0 0 1 3 3
Neighs:        1135.00 ave        3769 max           0 min
Histogram: 4 1 0 0 1 0 0 1 0 1

Total # of neighbors = 9080
Ave neighs/atom = 54.047619
Ave special neighs/atom = 9.1428571
Neighbor list builds = 0
Dangerous builds = 0
undump          dumpeq1

write_data   system_after_eq1_min.data
System init for write_data ...
PPPM initialization ...
  using 12-bit tables for long-range coulomb (../kspace.cpp:340)
  G vector (1/distance) = 0.077713503
  grid = 4 4 4
  stencil order = 5
  estimated absolute RMS force accuracy = 0.033197132
  estimated relative force accuracy = 9.9972176e-05
  using double precision KISS FFT
  3d grid and FFT values/proc = 343 8

# -- Equilibration part 2: reorienting the molecules (NVT) --

timestep        1.0
dump dumpeq2 all custom 200 traj_eq2_reorient.lammpstrj id mol type x y z ix iy iz

# Give each atom a random initial velocity consistent with a system at 900.0K.
velocity all create 900.0 12345


# Run the system at high temperature (at constant volume) to reorient the
# the molecules (which would otherwise be pointing in the same direction).

# To speed it up, I randomize the atomic positions for a few thousand steps
# using fix langevin (and fix nve).  Then I switch to fix nvt (Nose-Hoover).
# (If I start with fix nvt (Nose-Hoover), it seems to get "stuck" for a while.)


fix fxlan all langevin  900.0 900.0  120 48279
fix fxnve all nve

run             4000
PPPM initialization ...
  using 12-bit tables for long-range coulomb (../kspace.cpp:340)
  G vector (1/distance) = 0.077713503
  grid = 4 4 4
  stencil order = 5
  estimated absolute RMS force accuracy = 0.033197132
  estimated relative force accuracy = 9.9972176e-05
  using double precision KISS FFT
  3d grid and FFT values/proc = 343 8
Per MPI rank memory allocation (min/avg/max) = 11.84 | 12.04 | 12.42 Mbytes
Step Time Temp Press Volume Density PotEng TotEng E_pair E_bond E_angle E_dihed 
      61            0          900    78.663092    242970.62  0.004766856 -0.0076420745    2.6591183 -0.026541446 0.0010279999  0.016203653 0.0016677178 
     100           39    676.63538    6.0286958    242970.62  0.004766856    1.3211606    3.3260766  0.096974989   0.36772198   0.67305441   0.18340917 
     150           89    720.48729    39.560037    242970.62  0.004766856    1.9780291    4.1128813   0.10622367   0.66204888     1.034358   0.17539853 
     200          139    764.30815   -10.446898    242970.62  0.004766856    2.3407523    4.6054487   0.10240842   0.98746273    1.0363761   0.21450504 
     250          189    890.20343    21.536549    242970.62  0.004766856    2.4600925     5.097825    0.1629454   0.88971222    1.2160768   0.19135805 
     300          239    922.00439     3.781749    242970.62  0.004766856    2.3714358    5.1033967   0.13774265   0.82669328    1.1841426   0.22285733 
     350          289    900.33257   -17.079732    242970.62  0.004766856    2.3304954    4.9982412   0.11141027   0.83019772    1.1793263   0.20956106 
     400          339    780.56255    76.952583    242970.62  0.004766856    2.3677403    4.6805995   0.16747662   0.78786745    1.1851238   0.22727246 
     450          389    843.40208   -35.350792    242970.62  0.004766856    2.2261317    4.7251887   0.14810064   0.75330268    1.0865342   0.23819426 
     500          439    869.93976   -39.741744    242970.62  0.004766856    2.0404911     4.618181   0.13374741   0.70683686    1.0082438   0.19166308 
     550          489    816.57865    21.199552    242970.62  0.004766856    2.2623469    4.6819242   0.17279859   0.73115975     1.169995   0.18839354 
     600          539    757.01867   -47.953822    242970.62  0.004766856    2.1909002    4.4339974   0.15309519   0.71416721    1.1123355   0.21130235 
     650          589     839.6146   -14.678809    242970.62  0.004766856    2.2892414    4.7770759   0.13137229    0.7604294     1.253641   0.14379877 
     700          639    824.83545    11.144411    242970.62  0.004766856     2.384852    4.8288948   0.14243671   0.81027781    1.2337651   0.19837233 
     750          689    874.80798    49.393696    242970.62  0.004766856    2.3439101    4.9360248   0.13374097   0.79763608    1.2481594   0.16437364 
     800          739    946.24509   -22.901906    242970.62  0.004766856    2.4404053     5.244193   0.17121529   0.88445762     1.156484   0.22824838 
     850          789     987.7501    96.200058    242970.62  0.004766856    2.5202794    5.4470492   0.14890072    0.9435249    1.2038441   0.22400964 
     900          839    946.86547   -6.5972053    242970.62  0.004766856    2.5195187    5.3251447   0.16981582   0.98215165    1.1452628    0.2222885 
     950          889    976.15758    107.03976    242970.62  0.004766856    2.4530749    5.3454953   0.15000066   0.81123736    1.2566015   0.23523535 
    1000          939    832.64373   -112.21694    242970.62  0.004766856    2.6981409    5.1653202   0.12753545   0.95675387    1.3908671   0.22298444 
    1050          989    883.92133    127.45606    242970.62  0.004766856    2.4188315    5.0379497   0.16014594   0.88879377    1.1961316   0.17376018 
    1100         1039    840.22044   -134.07094    242970.62  0.004766856    2.4446812    4.9343108   0.14539225   0.88832337    1.2178736   0.19309206 
    1150         1089    883.28743     140.7378    242970.62  0.004766856    2.3361939    4.9534338   0.16397096   0.76494474    1.1682869    0.2389913 
    1200         1139    942.59252   -25.982373    242970.62  0.004766856    2.3417005    5.1346654   0.13287148   0.86547108    1.1423767    0.2009813 
    1250         1189    866.72993    74.211156    242970.62  0.004766856    2.4192689    4.9874479   0.19857797   0.78498117    1.1899932   0.24571664 
    1300         1239    905.46129   -42.729955    242970.62  0.004766856    2.4477533    5.1306959   0.14404939   0.86270764     1.188858   0.25213828 
    1350         1289    889.85738    56.596996    242970.62  0.004766856    2.3498435    4.9865506    0.1598165   0.75296197    1.1988242    0.2382408 
    1400         1339    838.81917   -96.212233    242970.62  0.004766856    2.5997677    5.0852452   0.12662201   0.97968739    1.2803864   0.21307188 
    1450         1389    944.00751    28.194086    242970.62  0.004766856    2.3145141    5.1116718   0.15565064   0.88990064    1.0642002    0.2047627 
    1500         1439    910.74056   -22.718624    242970.62  0.004766856    2.5325327    5.2311181   0.16056619   0.91174451    1.2601248   0.20009725 
    1550         1489    957.50685   -17.165492    242970.62  0.004766856    2.5304073    5.3675644   0.14025428   0.91930764    1.2250172   0.24582821 
    1600         1539    1013.2812   -1.3418335    242970.62  0.004766856    2.5557017     5.558122   0.17902281   0.98269722    1.1649806   0.22900108 
    1650         1589    1050.5288    66.382909    242970.62  0.004766856    2.2591343    5.3719217   0.14919823   0.96098527    0.9330309   0.21591991 
    1700         1639    971.43872   -32.645882    242970.62  0.004766856    2.7045658    5.5830039   0.19107078   0.96303808    1.2954375   0.25501942 
    1750         1689    941.35009    20.968681    242970.62  0.004766856    2.5755926    5.3648761   0.14511043    1.0133951    1.2156063   0.20148079 
    1800         1739    912.05297   -57.298875    242970.62  0.004766856    2.6220033    5.3244775   0.16716113   0.87367541    1.3750973   0.20606945 
    1850         1789    1012.3727     31.47528    242970.62  0.004766856    2.4950885    5.4948169   0.19980346    0.8072665    1.2746713   0.21334725 
    1900         1839    963.01219   -33.880429    242970.62  0.004766856     2.513203    5.3666727   0.14311772   0.94233843    1.2093731   0.21837373 
    1950         1889    1036.7291    23.807746    242970.62  0.004766856    2.4560325    5.5279304   0.18396794   0.85943658    1.1770533   0.23557469 
    2000         1939    996.94048   -53.034633    242970.62  0.004766856    2.6909848    5.6449864   0.17394228    1.0058672    1.3025418   0.20863362 
    2050         1989    1014.2607    33.652507    242970.62  0.004766856     2.520187    5.5255095   0.23105847   0.82886113    1.2515493   0.20871805 
    2100         2039    989.65079   -71.846646    242970.62  0.004766856    2.4620781    5.3944799   0.13454369   0.84362235     1.282209   0.20170313 
    2150         2089    939.09487    132.05787    242970.62  0.004766856    2.5761533    5.3587544   0.20790391   0.84389023    1.3161327   0.20822645 
    2200         2139    887.90199   -64.418678    242970.62  0.004766856    2.8153439    5.4462571   0.17005871    1.0496922    1.3639329   0.23166014 
    2250         2189    1008.1982    90.990898    242970.62  0.004766856    2.7356713    5.7230304   0.18435704    1.0090523    1.2919254   0.25033654 
    2300         2239    1009.3105   -118.74411    242970.62  0.004766856    2.8261022    5.8167571   0.16977318    1.0165576    1.4063284     0.233443 
    2350         2289    966.65439     76.51206    242970.62  0.004766856    2.5020389    5.3663007   0.17841367   0.90560884    1.1919728   0.22604354 
    2400         2339    908.24575   -36.813491    242970.62  0.004766856    2.5873061    5.2784992   0.17615008   0.87797882    1.3254284   0.20774878 
    2450         2389    868.79346    55.042596    242970.62  0.004766856    2.4418227    5.0161161   0.14505052   0.89467743    1.1775223   0.22457251 
    2500         2439      846.942   -8.1088928    242970.62  0.004766856    2.6612941    5.1708401   0.18246555    1.0362093    1.2245935   0.21802573 
    2550         2489      832.688   -28.887529    242970.62  0.004766856    2.6714871    5.1387975   0.16002864    1.1232136    1.1572971   0.23094782 
    2600         2539    924.11695   -30.763035    242970.62  0.004766856    2.4440434    5.1822639   0.17186898   0.94149522    1.1431932   0.18748601 
    2650         2589    864.65479    -50.07967    242970.62  0.004766856     2.426116    4.9881462    0.1693075   0.83986286    1.1949288   0.22201684 
    2700         2639    969.56045     1.396209    242970.62  0.004766856    2.2686142    5.1414869   0.17377583   0.68946802    1.2159027   0.18946768 
    2750         2689     904.0462   -34.911568    242970.62  0.004766856    2.4759585    5.1547081   0.13529115   0.87948767    1.2477575   0.21342215 
    2800         2739    881.29044   -1.6432794    242970.62  0.004766856    2.5401886    5.1515113   0.16975397   0.85747914    1.3161061   0.19684933 
    2850         2789    925.99453   -52.494913    242970.62  0.004766856      2.36228    5.1060639   0.13069385   0.88310746    1.1543297   0.19414896 
    2900         2839     893.3555     84.23927    242970.62  0.004766856    2.6165521    5.2636244   0.17499179   0.89222569    1.3388847   0.21044992 
    2950         2889    857.17011    9.6038425    242970.62  0.004766856    2.5499093    5.0897618   0.15424746   0.84633749    1.3107609   0.23856344 
    3000         2939    879.63754   -45.837545    242970.62  0.004766856     2.685005    5.2914301   0.14458739   0.89775959    1.4238304   0.21882762 
    3050         2989    925.04089   -4.7954713    242970.62  0.004766856    2.6701375    5.4110958   0.15457041    1.0085759    1.2893276   0.21766358 
    3100         3039    938.03126   -95.932261    242970.62  0.004766856    2.6453228    5.4247724   0.12309698    1.1001658    1.2226018   0.19945829 
    3150         3089    1043.5182    37.461633    242970.62  0.004766856    2.3657998    5.4578142   0.17041094   0.83024393    1.1614009   0.20374404 
    3200         3139    912.73312     46.66923    242970.62  0.004766856      2.28104    4.9855295   0.12249958   0.65477647    1.2895775   0.21418651 
    3250         3189    878.53165   -53.639547    242970.62  0.004766856    2.4569404    5.0600887   0.18701183   0.96423977    1.1126721   0.19301674 
    3300         3239    868.67389   -61.255397    242970.62  0.004766856    2.5060975    5.0800365   0.15047578   0.95819771    1.2097488   0.18767525 
    3350         3289    906.32174    73.681207    242970.62  0.004766856    2.5153433    5.2008354   0.14537981   0.93685033    1.2620028   0.17111028 
    3400         3339    893.29916    64.936559    242970.62  0.004766856    2.4630741    5.1099795   0.20793722   0.82696666    1.1958542   0.23231601 
    3450         3389     982.5978   -55.269704    242970.62  0.004766856     2.322583    5.2340862   0.11251806   0.87083877    1.1555868   0.18363934 
    3500         3439    962.42662    17.644749    242970.62  0.004766856    2.4382948    5.2900294    0.1960255    0.7879079    1.2657526   0.18860878 
    3550         3489    969.92194    -8.323229    242970.62  0.004766856    2.1652992     5.039243   0.11630696   0.83369072    1.0484285   0.16687304 
    3600         3539    862.87764   -19.529604    242970.62  0.004766856    2.4246946     4.981459   0.15473363   0.90369684    1.1341767   0.23208744 
    3650         3589    859.19823    19.491205    242970.62  0.004766856    2.4359813    4.9818433   0.12762789    1.0353706    1.0900498   0.18293306 
    3700         3639    876.80832    1.4227479    242970.62  0.004766856    2.6180266    5.2160685   0.17212832   0.94930562    1.2992351   0.19735751 
    3750         3689     1010.844    0.1172245    242970.62  0.004766856    2.2717792    5.2669777   0.13014828   0.85113439    1.1323038   0.15819271 
    3800         3739    891.92005   -16.477652    242970.62  0.004766856    2.7657363    5.4085553   0.23493317    0.9630917     1.339091   0.22862047 
    3850         3789    903.46402    29.597855    242970.62  0.004766856    2.5629078    5.2399323   0.17730997   0.96384949    1.1900562   0.23169213 
    3900         3839     1026.433    -43.68612    242970.62  0.004766856    2.3964662    5.4378562   0.12900374    1.0259251    1.0556701    0.1858672 
    3950         3889    949.67387    29.197079    242970.62  0.004766856    2.4433746     5.257322   0.17860802   0.88655975     1.144842    0.2333648 
    4000         3939    934.55042    -51.81118    242970.62  0.004766856    2.5580208    5.3271564   0.15434589    1.0215066    1.1471482   0.23502017 
    4050         3989    953.66987   -47.615477    242970.62  0.004766856    2.4914233    5.3172112   0.14956967    1.0080677     1.137544   0.19624197 
    4061         4000    941.70702  -0.72104733    242970.62  0.004766856    2.6620607    5.4524018   0.15233571   0.99972904     1.306117   0.20387888 
Loop time of 0.923831 on 8 procs for 4000 steps with 168 atoms

Performance: 374.095 ns/day, 0.064 hours/ns, 4329.798 timesteps/s
99.6% CPU use with 8 MPI tasks x no OpenMP threads

MPI task timing breakdown:
Section |  min time  |  avg time  |  max time  |%varavg| %total
---------------------------------------------------------------
Pair    | 0.0074943  | 0.091082   | 0.22194    |  27.6 |  9.86
Bond    | 0.0022029  | 0.09241    | 0.28105    |  30.0 | 10.00
Kspace  | 0.32088    | 0.57492    | 0.73075    |  19.8 | 62.23
Neigh   | 0.02266    | 0.022963   | 0.023254   |   0.1 |  2.49
Comm    | 0.051967   | 0.099411   | 0.12058    |   6.9 | 10.76
Output  | 0.017434   | 0.017695   | 0.018171   |   0.2 |  1.92
Modify  | 0.0019198  | 0.0075733  | 0.020976   |   7.1 |  0.82
Other   |            | 0.01778    |            |       |  1.92

Nlocal:        21.0000 ave          71 max           1 min
Histogram: 4 1 0 0 1 0 1 0 0 1
Nghost:        134.000 ave         165 max          97 min
Histogram: 1 0 0 1 0 3 2 0 0 1
Neighs:        891.875 ave        2562 max          33 min
Histogram: 4 1 0 0 0 0 1 1 0 1

Total # of neighbors = 7135
Ave neighs/atom = 42.470238
Ave special neighs/atom = 9.1428571
Neighbor list builds = 212
Dangerous builds = 1

unfix fxlan
unfix fxnve
# Now continue the simulation at high temperature using fix nvt (Nose-Hoover).
fix fxnvt all nvt temp 900.0 900.0 100.0

run             10000
PPPM initialization ...
  using 12-bit tables for long-range coulomb (../kspace.cpp:340)
  G vector (1/distance) = 0.077713503
  grid = 4 4 4
  stencil order = 5
  estimated absolute RMS force accuracy = 0.033197132
  estimated relative force accuracy = 9.9972176e-05
  using double precision KISS FFT
  3d grid and FFT values/proc = 343 8
Per MPI rank memory allocation (min/avg/max) = 12.22 | 13.27 | 13.68 Mbytes
Step Time Temp Press Volume Density PotEng TotEng E_pair E_bond E_angle E_dihed 
    4061         4000    941.70702  -0.72104733    242970.62  0.004766856    2.6620607    5.4524018   0.15233571   0.99972904     1.306117   0.20387888 
    4100         4039    935.66182     69.11714    242970.62  0.004766856    2.6439097    5.4163384   0.22431025   0.88813943    1.3160985   0.21536153 
    4150         4089    933.21951   -26.862966    242970.62  0.004766856    2.5135658    5.2787579   0.15472175   0.80499988    1.3558834   0.19796078 
    4200         4139    943.07737   -11.339871    242970.62  0.004766856    2.2806976    5.0750992   0.15820165   0.78699815    1.1504318   0.18506599 
    4250         4189    867.42222    52.541087    242970.62  0.004766856    2.3457129    4.9159432    0.1723464   0.78450385    1.1562447   0.23261793 
    4300         4239    848.49215   -109.65508    242970.62  0.004766856    2.3732123    4.8873515   0.13329696   0.97915103    1.0561816   0.20458277 
    4350         4289    876.72886    107.83472    242970.62  0.004766856    2.3275287    4.9253352   0.21338623    0.9470965    0.9325413   0.23450471 
    4400         4339    856.14076   -107.52341    242970.62  0.004766856    2.4543878    4.9911903   0.17601966   0.95676927    1.0696991   0.25189974 
    4450         4389    943.85695    57.392668    242970.62  0.004766856      2.28318    5.0798915   0.17003266   0.85919913    1.0647949   0.18915338 
    4500         4439    887.03336  -0.35228705    242970.62  0.004766856    2.5384163    5.1667557   0.20330294   0.84323867    1.2484295    0.2434452 
    4550         4489     1015.027    18.290159    242970.62  0.004766856     2.223323    5.2309162   0.16408443   0.74635913    1.1193353   0.19354412 
    4600         4539    933.06895   -34.748204    242970.62  0.004766856    2.5241213    5.2888672   0.20225357   0.91289393    1.2080621    0.2009117 
    4650         4589    918.32532   -26.925241    242970.62  0.004766856    2.5836966    5.3047561   0.21315969   0.99822376    1.1898597   0.18245339 
    4700         4639    910.43202    58.788636    242970.62  0.004766856    2.5422319     5.239903   0.17751298   0.89079817     1.243633   0.23028775 
    4750         4689     884.7253    7.2753881    242970.62  0.004766856    2.4145341    5.0360345   0.20311969   0.94801444    1.0687994   0.19460053 
    4800         4739    842.55204   -36.922147    242970.62  0.004766856    2.3447529    4.8412912   0.17963163   0.84560542    1.1634175   0.15609835 
    4850         4789    811.52782    10.217382    242970.62  0.004766856    2.3584944    4.7631058   0.20239292   0.74438362    1.2278584   0.18385946 
    4900         4839    841.33653    47.798352    242970.62  0.004766856    2.3048124     4.797749   0.20264128   0.76420302     1.171455   0.16651313 
    4950         4889    860.81322   -24.599645    242970.62  0.004766856     2.387609    4.9382563   0.19161084   0.84192438    1.1666271   0.18744666 
    5000         4939    916.23066    61.909458    242970.62  0.004766856    2.4243198    5.1391727   0.19771644    1.0009031    1.0412204   0.18447988 
    5050         4989    906.18734   -18.307436    242970.62  0.004766856    2.5804428    5.2655367   0.21207563   0.95131717     1.251329   0.16572097 
    5100         5039      931.648    69.991057    242970.62  0.004766856    2.5561597    5.3166953   0.19095383   0.78682422    1.3439123   0.23446933 
    5150         5089    911.04088    18.827433    242970.62  0.004766856    2.6218835    5.3213588   0.23983931   0.81868531    1.3763196   0.18703926 
    5200         5139    976.37028    34.120625    242970.62  0.004766856    2.3852935    5.2783441   0.18300948   0.76101546    1.2498462   0.19142237 
    5250         5189    897.27275   0.43525283    242970.62  0.004766856    2.5453451    5.2040245   0.22585515   0.77435768    1.3144512   0.23068109 
    5300         5239    929.84808   0.27500655    242970.62  0.004766856    2.3478749    5.1030772   0.20430626   0.94069752    1.0365009    0.1663702 
    5350         5289    827.93379   -32.129714    242970.62  0.004766856    2.4822766       4.9355   0.18983238   0.97348357    1.1261509   0.19280977 
    5400         5339    779.98248   0.12265542    242970.62  0.004766856    2.4178246    4.7289651   0.21665368   0.95701547     1.032344   0.21181141 
    5450         5389     798.2281     11.68238    242970.62  0.004766856    2.2434359    4.6086394   0.22714415   0.92301174   0.89049888   0.20278115 
    5500         5439    810.80202   -34.872001    242970.62  0.004766856    2.2198519    4.6223127   0.17988961   0.99086112   0.86586968   0.18323144 
    5550         5489    876.93941   -22.147164    242970.62  0.004766856    2.2659149    4.8643452   0.19821458   0.91413442    0.9548293   0.19873655 
    5600         5539    888.22831   -42.578321    242970.62  0.004766856    2.5437496    5.1756297    0.1747498    1.0204539    1.1572689   0.19127688 
    5650         5589    906.59812    83.819929    242970.62  0.004766856    2.5851583    5.2714694   0.22565688   0.87093065    1.2311958   0.25737494 
    5700         5639    901.40525    3.4622838    242970.62  0.004766856    2.6248741    5.2957983   0.18560986   0.93762878    1.3053803   0.19625516 
    5750         5689     936.2656    62.745583    242970.62  0.004766856    2.4955285    5.2697463   0.18651428   0.84873995    1.2161398   0.24413443 
    5800         5739     920.5172     20.17323    242970.62  0.004766856     2.492893    5.2204472   0.17019457   0.82961714    1.3206468   0.17243443 
    5850         5789    953.44938   0.50080355    242970.62  0.004766856     2.299614    5.1247485   0.16823296   0.88681065     1.026163   0.21840736 
    5900         5839    884.07983   -28.249437    242970.62  0.004766856    2.4241406    5.0437285   0.18597356   0.85846026    1.1905355   0.18917124 
    5950         5889    798.43701    68.419116    242970.62  0.004766856    2.6149006     4.980723    0.2153568   0.90205524    1.2930302   0.20445833 
    6000         5939    787.90902   -56.782755    242970.62  0.004766856    2.6230531    4.9576804   0.20559458   0.95574527    1.2366719   0.22504134 
    6050         5989    886.41991    20.128251    242970.62  0.004766856    2.3748073     5.001329   0.19571863   0.90523195    1.0732172   0.20063947 
    6100         6039    885.62835   -82.115135    242970.62  0.004766856    2.5481252    5.1723014   0.20178722   0.88801961    1.2598173   0.19850104 
    6150         6089    1007.5749   -6.6656655    242970.62  0.004766856    2.3994959    5.3850081   0.20183151   0.71344187     1.276769    0.2074536 
    6200         6139    1033.2097    69.959738    242970.62  0.004766856    2.4418701    5.5033399   0.19740696    0.6541837     1.387466   0.20281345 
    6250         6189    1020.8424    53.062507    242970.62  0.004766856    2.4715969    5.4964216   0.18067287   0.70131388    1.3464903   0.24311987 
    6300         6239    980.04398   -13.662037    242970.62  0.004766856     2.507686    5.4116221   0.19717269   0.85328679    1.2777226   0.17950394 
    6350         6289     914.4441    57.321958    242970.62  0.004766856     2.545996    5.2555552   0.19209865   0.80325508    1.3450263   0.20561589 
    6400         6339     873.5801    30.530589    242970.62  0.004766856    2.5413373    5.1298138   0.19372458   0.79646633    1.3887917   0.16235468 
    6450         6389    870.36362    18.724896    242970.62  0.004766856     2.490174    5.0691199   0.18123641   0.82324262    1.2602699   0.22542514 
    6500         6439     863.1439    48.485588    242970.62  0.004766856    2.5128606    5.0704139   0.17299978   0.84263765     1.262622   0.23460114 
    6550         6489    904.03072   -98.976252    242970.62  0.004766856    2.3985571    5.0772609   0.16016768   0.84577523    1.1927177   0.19989657 
    6600         6539    1011.6208    56.964903    242970.62  0.004766856    2.1080491    5.1055494   0.20281258   0.70387064    1.0169157   0.18445025 
    6650         6589    907.74667   -74.515066    242970.62  0.004766856    2.4703011    5.1600154   0.15141083   0.86183587    1.2402087   0.21684568 
    6700         6639    967.23607     122.3521    242970.62  0.004766856    2.3648835    5.2308689   0.22249537   0.72992945    1.2043121    0.2081466 
    6750         6689    955.66897   -62.469887    242970.62  0.004766856    2.4987173    5.3304287   0.16243476   0.91909674    1.2281951   0.18899073 
    6800         6739      989.111   -32.114128    242970.62  0.004766856    2.5060616    5.4368639   0.19132105   0.86352619    1.2366218   0.21459257 
    6850         6789    957.87164   -10.685323    242970.62  0.004766856    2.7358125    5.5740504   0.25033463    1.0068214     1.239604   0.23905249 
    6900         6839    989.50398    7.9951848    242970.62  0.004766856     2.725091    5.6570577   0.15732483    1.0047567    1.4006498   0.16235968 
    6950         6889    964.25039   -22.020865    242970.62  0.004766856    2.7096153    5.5667539   0.21893557   0.94621301    1.3019913   0.24247545 
    7000         6939      972.486     86.44727    242970.62  0.004766856    2.4388611    5.3204025   0.23229287    0.8870501    1.0950076   0.22451061 
    7050         6989    868.77217   -57.850565    242970.62  0.004766856    2.5426534    5.1168836   0.17241906    0.8555848    1.3129224    0.2017271 
    7100         7039    898.88089    82.103134    242970.62  0.004766856    2.3600325    5.0234769   0.22669392   0.78647914    1.1311085   0.21575092 
    7150         7089    816.54259   -140.84562    242970.62  0.004766856    2.5972769    5.0167474    0.1915247    1.0012811    1.1867069   0.21776425 
    7200         7139    882.87627    132.05846    242970.62  0.004766856    2.4244665    5.0404881   0.22161231   0.94900873    1.0472291   0.20661633 
    7250         7189    831.72311   -96.343477    242970.62  0.004766856    2.6391239    5.1035753   0.18030121    1.0211715    1.2298806   0.20777056 
    7300         7239    869.80301    32.714881    242970.62  0.004766856    2.6446839    5.2219686   0.22239898    0.9679606    1.2530695   0.20125483 
    7350         7289    901.57754   -72.518327    242970.62  0.004766856    2.7101347    5.3815695   0.17389578     1.008564    1.3258327   0.20184221 
    7400         7339    1014.9593    81.023333    242970.62  0.004766856    2.5313074    5.5386999   0.22204752   0.89556002    1.2061763   0.20752363 
    7450         7389    972.32868   -57.687693    242970.62  0.004766856    2.7921541    5.6732292    0.1822235   0.94648543    1.4392992   0.22414594 
    7500         7439    1043.2841    37.116399    242970.62  0.004766856    2.6212258    5.7125467   0.22163978   0.93791338    1.3065632   0.15510946 
    7550         7489    979.98788    -2.083349    242970.62  0.004766856    2.5996409    5.5034107   0.18799759   0.98156823    1.1983728   0.23170225 
    7600         7539    933.63297    22.197823    242970.62  0.004766856    2.4361629    5.2025801   0.22333815   0.87621811    1.1390112   0.19759549 
    7650         7589    920.07522   -3.2328267    242970.62  0.004766856    2.3283076    5.0545522   0.19512469   0.79800252    1.1331853   0.20199505 
    7700         7639    882.67443    4.7400045    242970.62  0.004766856    2.3766854     4.992109   0.20596167   0.79507666    1.1620768   0.21357031 
    7750         7689    883.65844   -13.936031    242970.62  0.004766856    2.3543492    4.9726885    0.1967288    0.8249627    1.1315613   0.20109637 
    7800         7739    920.48854    2.8933823    242970.62  0.004766856    2.2695271    4.9969964   0.21818942   0.75254883     1.071185   0.22760385 
    7850         7789    904.22004   -23.091603    242970.62  0.004766856    2.4086734    5.0879381   0.21483976    0.7637055    1.1953686   0.23475958 
    7900         7839    861.03598    100.91289    242970.62  0.004766856      2.69482    5.2461274   0.27245738   0.91733876    1.2963641    0.2086598 
    7950         7889    833.00432    21.680061    242970.62  0.004766856    2.9346528    5.4029005   0.21912629    1.1826536    1.3247431   0.20812969 
    8000         7939    972.23621   -30.764414    242970.62  0.004766856    2.5988538    5.4796549   0.18934767    1.0462591     1.181088     0.182159 
    8050         7989    936.40948    55.047691    242970.62  0.004766856    2.6847361    5.4593803   0.23507114   0.99569164    1.2502335   0.20373988 
    8100         8039    914.89635   -78.315309    242970.62  0.004766856     2.557698    5.2685973   0.16622505   0.87540921    1.3010914   0.21497239 
    8150         8089    882.53885    74.625698    242970.62  0.004766856    2.3432375    4.9582593   0.22534285     0.749001    1.1539935   0.21490015 
    8200         8139    825.56692    17.896621    242970.62  0.004766856    2.3808784    4.8270886   0.23459028   0.75394795     1.185229   0.20711122 
    8250         8189    846.78589   -15.803783    242970.62  0.004766856    2.3153281    4.8244115   0.19146759   0.74581605     1.185767   0.19227746 
    8300         8239    848.12306     57.43688    242970.62  0.004766856    2.3868541    4.8998997   0.22159027   0.77675844    1.2093022   0.17920318 
    8350         8289    904.53021   -40.545791    242970.62  0.004766856    2.3513506    5.0315343   0.16596558   0.78475377    1.2141219   0.18650933 
    8400         8339    903.54024     7.331205    242970.62  0.004766856    2.5079601    5.1852104   0.21756591   0.81565686    1.2717228   0.20301451 
    8450         8389    918.02685    71.585028    242970.62  0.004766856    2.5794255    5.2996006   0.18844991    0.8330924    1.3634741   0.19440906 
    8500         8439    965.59107   -57.595491    242970.62  0.004766856    2.4965719    5.3576831   0.18959152   0.88467052    1.2240389   0.19827096 
    8550         8489    932.56754    62.840888    242970.62  0.004766856    2.5867907    5.3500509   0.23477636   0.89225435    1.2655772   0.19418276 
    8600         8539    899.26405   -63.584143    242970.62  0.004766856    2.6357401    5.3003199   0.19485417   0.87802807    1.3623817   0.20047617 
    8650         8589    854.28329    0.8772583    242970.62  0.004766856    2.6604566    5.1917553   0.24739034    0.8441327    1.3767676   0.19216591 
    8700         8639    907.44871    6.7113843    242970.62  0.004766856    2.2439325     4.932764   0.19035757   0.66466081     1.169517   0.21939718 
    8750         8689    845.20739    19.323636    242970.62  0.004766856    2.1511826    4.6555888   0.18708127   0.60668066    1.1612131   0.19620752 
    8800         8739    806.80018    3.5062948    242970.62  0.004766856     2.225818    4.6164211   0.20546044   0.67346277    1.1286271   0.21826769 
    8850         8789    803.04212   -30.303127    242970.62  0.004766856    2.3328389    4.7123066   0.17526928   0.78685863      1.18982   0.18089098 
    8900         8839    787.78132    24.157171    242970.62  0.004766856    2.5384782    4.8727271   0.17851541    0.7674752    1.3831429   0.20934471 
    8950         8889    864.58873    44.971122    242970.62  0.004766856    2.4812327    5.0430672   0.22738475   0.82934216     1.199579   0.22492684 
    9000         8939    888.72073   -27.107167    242970.62  0.004766856    2.5419983    5.1753375   0.16534782   0.99950932    1.1541755   0.22296568 
    9050         8989    970.63893    6.8165454    242970.62  0.004766856    2.3963916    5.2724599   0.19277267   0.74775535    1.2792094   0.17665419 
    9100         9039     1005.745    29.546272    242970.62  0.004766856    2.3291587    5.3092486   0.17654688    0.6886654    1.2592183   0.20472817 
    9150         9089     967.2435    17.224365    242970.62  0.004766856    2.4507075    5.3167149   0.18517122   0.74113518    1.3438519   0.18054923 
    9200         9139    928.19664   -10.559695    242970.62  0.004766856    2.5091624    5.2594714   0.22121075   0.80752254    1.2853441   0.19508504 
    9250         9189    922.40109   -14.538498    242970.62  0.004766856    2.3908638    5.1240002   0.19654538   0.88001605    1.1260201   0.18828229 
    9300         9239    808.50818   -18.748088    242970.62  0.004766856    2.5200788    4.9157428   0.19178257   0.85908632    1.2600241   0.20918582 
    9350         9289    777.90988  -0.82989618    242970.62  0.004766856    2.4679528     4.772952   0.18106514   0.88867054    1.2446862   0.15353085 
    9400         9339    732.36733    22.978509    242970.62  0.004766856    2.5647421    4.7347957   0.21498831   0.84866522    1.2964171   0.20467152 
    9450         9389    767.63177    14.279803    242970.62  0.004766856    2.5307793    4.8053238   0.20153784   0.74832429    1.3949232   0.18599396 
    9500         9439    843.71265    18.377572    242970.62  0.004766856    2.4467156    4.9466929   0.20597285   0.82163405    1.2127413   0.20636744 
    9550         9489    904.64961    18.010009    242970.62  0.004766856    2.3811617    5.0616992   0.18688374   0.69604018    1.3132138   0.18502396 
    9600         9539    852.07252   -25.660953    242970.62  0.004766856    2.5842213    5.1089694   0.17162131   0.80816984    1.3601244   0.24430577 
    9650         9589    879.81538    35.357741    242970.62  0.004766856    2.5395715    5.1465235   0.22654223   0.65021599    1.4443827   0.21843058 
    9700         9639      928.965    23.489793    242970.62  0.004766856    2.4328553     5.185441   0.18091288   0.67648084    1.3835448    0.1919168 
    9750         9689    922.92209    46.883275    242970.62  0.004766856     2.491511    5.2261911   0.22011516   0.71075578    1.3819903   0.17864972 
    9800         9739    865.30647   -15.414735    242970.62  0.004766856    2.6640659    5.2280271    0.2190748   0.93862415    1.2804718   0.22589514 
    9850         9789    899.52875    -49.60993    242970.62  0.004766856    2.5215299     5.186894   0.19835689    1.0050866    1.1533739   0.16471255 
    9900         9839    887.48368  -0.17447443    242970.62  0.004766856    2.4376073     5.067281   0.18861588   0.93386168    1.1053225   0.20980726 
    9950         9889    874.70558    28.683381    242970.62  0.004766856    2.3042208    4.8960322   0.18939336    0.8833986    1.0523402   0.17908862 
   10000         9939     816.5399   -23.914907    242970.62  0.004766856    2.3304428    4.7499053   0.18776784   0.79757679    1.1231151   0.22198304 
   10050         9989    849.91128    74.790107    242970.62  0.004766856    2.1930706    4.7114148   0.20516866   0.72860738    1.0731405   0.18615404 
   10100        10039    850.59078   -86.130973    242970.62  0.004766856    2.2527581    4.7731157   0.14946038   0.86652856    1.0240992   0.21266996 
   10150        10089    879.90363    54.714058    242970.62  0.004766856    2.3991738    5.0063873   0.19269466   0.70150092    1.2720953   0.23288291 
   10200        10139    874.82106    15.813483    242970.62  0.004766856    2.6602873    5.2524408   0.24389445   0.89206411    1.3131353   0.21119345 
   10250        10189    891.22516    17.436672    242970.62  0.004766856    2.6833117    5.3240717   0.25834607    0.9142049    1.2737002   0.23706055 
   10300        10239    873.04568    49.601629    242970.62  0.004766856    2.7277734    5.3146664   0.22787233   0.90901593    1.3720334   0.21885175 
   10350        10289    937.66878   -66.102711    242970.62  0.004766856    2.4741212    5.2524967   0.16599322   0.90428199    1.1838299   0.22001607 
   10400        10339    893.11486    65.444208    242970.62  0.004766856     2.507086    5.1534453   0.20527317   0.78787168    1.3220217   0.19191941 
   10450        10389    875.14491   -4.4440863    242970.62  0.004766856    2.4558634    5.0489765    0.2157064   0.84065248     1.167451   0.23205347 
   10500        10439    886.79395    -60.30128    242970.62  0.004766856    2.3238733    4.9515033   0.22798363   0.79276195    1.1052281   0.19789964 
   10550        10489    917.02904   -18.224191    242970.62  0.004766856    2.1548817    4.8721003   0.20903482   0.70825457   0.99325109    0.2443412 
   10600        10539    827.53606    14.394206    242970.62  0.004766856    2.3667493    4.8187943   0.20039419   0.72871826    1.2409467   0.19669022 
   10650        10589    833.21898    83.778144    242970.62  0.004766856    2.3287143     4.797598    0.2261595   0.69210861    1.1478184   0.26262772 
   10700        10639    812.45482   -73.365865    242970.62  0.004766856    2.4861426    4.8935008   0.21728458   0.80106508    1.2295162   0.23827681 
   10750        10689    911.52995    35.303594    242970.62  0.004766856    2.3914665    5.0923909   0.19443203   0.78137423    1.1811184   0.23454176 
   10800        10739    955.87061   -25.008206    242970.62  0.004766856    2.4491361    5.2814449   0.21303723    0.7512179    1.2984073   0.18647369 
   10850        10789    954.48322    19.888612    242970.62  0.004766856    2.5358281     5.364026   0.19672357   0.85368115    1.2481544     0.237269 
   10900        10839    952.97682    31.456088    242970.62  0.004766856     2.536587    5.3603213   0.25989933   0.70993377    1.3054734   0.26128052 
   10950        10889     977.4518    26.676467    242970.62  0.004766856    2.3907203    5.2869756   0.21577308   0.72703869    1.2323113   0.21559729 
   11000        10939    908.45973    11.865065    242970.62  0.004766856    2.4576203    5.1494474   0.18968613   0.74102682    1.3173959   0.20951146 
   11050        10989    842.87573    3.6918057    242970.62  0.004766856    2.4735236     4.971021   0.20118254   0.79705367    1.2799451   0.19534225 
   11100        11039    818.08129    44.758437    242970.62  0.004766856    2.4245333    4.8485631   0.17505884    0.7368318    1.3291541    0.1834885 
   11150        11089    792.47331   -29.653481    242970.62  0.004766856    2.4536585    4.8018102   0.18864836   0.74571202    1.3379254   0.18137272 
   11200        11139     843.0387    44.555304    242970.62  0.004766856    2.3408093    4.8387896   0.22478196   0.74723593    1.1892784   0.17951307 
   11250        11189    804.91426   -101.17105    242970.62  0.004766856    2.6057262    4.9907412   0.21179195    0.8959958    1.2955085    0.2024299 
   11300        11239    990.46644    54.341508    242970.62  0.004766856    2.4082517    5.3430703   0.20019349   0.82011941    1.2187985   0.16914033 
   11350        11289    1012.5023   -14.300328    242970.62  0.004766856    2.5136294    5.5137417   0.21368568   0.90345254    1.1820359   0.21445531 
   11400        11339    1015.8435    50.037384    242970.62  0.004766856    2.4511225     5.461135   0.21933002    0.7714123    1.2501744   0.21020578 
   11450        11389      920.987      35.4293    242970.62  0.004766856    2.5959807     5.324927   0.23055783   0.72722789    1.4275412   0.21065378 
   11500        11439    920.76714   -19.888413    242970.62  0.004766856    2.4290932    5.1573881   0.20640716   0.78665994    1.2226203   0.21340583 
   11550        11489    835.50878    7.5948389    242970.62  0.004766856    2.5496978    5.0253664   0.21964781   0.79516881    1.3338043   0.20107684 
   11600        11539    810.05859    42.954115    242970.62  0.004766856     2.537367     4.937625   0.23592264   0.84368987    1.2454216   0.21233283 
   11650        11589    903.89137    -18.81616    242970.62  0.004766856    2.2167794    4.8950702   0.22090903   0.75758569    1.0032816   0.23500305 
   11700        11639    875.50299    12.457086    242970.62  0.004766856    2.3328432    4.9270173   0.25437008   0.75812631    1.1332906   0.18705619 
   11750        11689    870.73313   -85.655076    242970.62  0.004766856    2.4451518    5.0251926   0.21181053    0.7516505    1.2586407    0.2230501 
   11800        11739    999.12851    53.259028    242970.62  0.004766856     2.275068    5.2355528   0.20469189    0.7038437    1.1496812   0.21685117 
   11850        11789    979.55931   -53.954689    242970.62  0.004766856    2.5393531     5.441853   0.17180238   0.87850486    1.2562614   0.23278439 
   11900        11839      988.412    64.100522    242970.62  0.004766856    2.5671152    5.4958463   0.21096326    0.6203146    1.4682779   0.26755936 
   11950        11889    972.63028    -45.10336    242970.62  0.004766856    2.5699795    5.4519483   0.20154749   0.76431097    1.3872218   0.21689921 
   12000        11939    978.40597   -33.127952    242970.62  0.004766856    2.4377199    5.3368024   0.17305133   0.80832364    1.2270818   0.22926314 
   12050        11989     877.2221   -3.1007841    242970.62  0.004766856    2.6434101    5.2426781   0.20266369     0.918215    1.2929211   0.22961035 
   12100        12039    921.27472    25.138316    242970.62  0.004766856    2.4479319    5.1777308   0.20377101   0.76271434    1.2473785   0.23406805 
   12150        12089     887.0314   -7.2156717    242970.62  0.004766856    2.5058186    5.1341522   0.20036411   0.79281612    1.2813005   0.23133786 
   12200        12139    894.62777    42.064592    242970.62  0.004766856    2.4364967    5.0873388   0.20284565    0.7764973    1.2240782    0.2330756 
   12250        12189     921.6056   -1.6261266    242970.62  0.004766856    2.3205419    5.0513212   0.19005773   0.77234046    1.1443884   0.21375531 
   12300        12239    883.24691   -19.009058    242970.62  0.004766856    2.4008186    5.0179385   0.19814807   0.72337775     1.262365   0.21692777 
   12350        12289    928.67573   -32.511071    242970.62  0.004766856    2.2316185     4.983347   0.22011062   0.67063505    1.0985012   0.24237156 
   12400        12339    824.54454   -45.064137    242970.62  0.004766856    2.5257428    4.9689236   0.18614766   0.88785005    1.2593799   0.19236522 
   12450        12389    897.80442    23.247268    242970.62  0.004766856    2.3382373    4.9984921     0.236718   0.76660613    1.1008137   0.23409953 
   12500        12439    903.67666    54.997417    242970.62  0.004766856    2.4333766    5.1110312   0.22038411   0.82037965    1.2354716   0.15714126 
   12550        12489    894.25963   -66.156467    242970.62  0.004766856    2.5850154    5.2347667   0.18931352   0.90373372    1.2687632   0.22320492 
   12600        12539    927.69747    50.399409    242970.62  0.004766856    2.6109174    5.3597473   0.25726465   0.82396149    1.3156933   0.21399801 
   12650        12589     908.6174   -45.353324    242970.62  0.004766856    2.7147548    5.4070492   0.18634703   0.86389989    1.4296191   0.23488884 
   12700        12639     942.6158    72.757715    242970.62  0.004766856    2.5780121     5.371046   0.26252714   0.82550156    1.2716909   0.21829244 
   12750        12689     869.8247    2.3715988    242970.62  0.004766856    2.6515218    5.2288708   0.21188392   0.84536961    1.3459747   0.24829361 
   12800        12739    902.81803    40.536607    242970.62  0.004766856    2.3517431    5.0268535   0.16993028    0.7471838    1.2295702   0.20505883 
   12850        12789    843.55207   -47.038442    242970.62  0.004766856    2.3806545    4.8801559   0.18808765   0.73295642    1.2639022   0.19570814 
   12900        12839    853.48931    36.015481    242970.62  0.004766856    2.3104789    4.8394251   0.20610691   0.71500822     1.185793   0.20357077 
   12950        12889     828.5494   -52.212279    242970.62  0.004766856    2.4209025      4.87595   0.18337548   0.71996522    1.2997971   0.21776467 
   13000        12939    863.74961    27.278553    242970.62  0.004766856    2.4084325    4.9677805   0.19417855   0.73382307    1.2818248   0.19860604 
   13050        12989    850.95603    18.043718    242970.62  0.004766856    2.5415311    5.0629709   0.20147414   0.75351683     1.393428    0.1931121 
   13100        13039    914.77284   -61.037245    242970.62  0.004766856    2.4022037     5.112737   0.19159745   0.79973854    1.2108664   0.20000136 
   13150        13089    893.18595    99.269247    242970.62  0.004766856    2.4903739    5.1369438   0.22478629   0.72400874    1.3374618   0.20411703 
   13200        13139    861.15892   -12.667308    242970.62  0.004766856    2.5999383      5.15161   0.21111185   0.83170255    1.3511399   0.20598404 
   13250        13189    930.80912    54.952714    242970.62  0.004766856    2.3931158    5.1511657   0.22086168   0.85946222    1.1232867   0.18950522 
   13300        13239    838.76554   -63.336657    242970.62  0.004766856    2.6537498    5.1390684   0.21207023   0.94523729    1.2869804    0.2094619 
   13350        13289    907.01562    44.755202    242970.62  0.004766856    2.4223924    5.1099406   0.21427428   0.80438879    1.2122227   0.19150666 
   13400        13339    888.19725   -96.997491    242970.62  0.004766856    2.4232099    5.0549979   0.18819385    0.8490563    1.1877519   0.19820777 
   13450        13389    860.27459    71.558612    242970.62  0.004766856     2.390356    4.9394074   0.21668749   0.69679351    1.2592072   0.21766786 
   13500        13439    840.23218   -55.453607    242970.62  0.004766856    2.3350747    4.8247391   0.16086791   0.79452704    1.2042407   0.17543904 
   13550        13489    840.75917    25.428975    242970.62  0.004766856    2.2682905    4.7595164   0.18663922   0.74321885    1.1470923   0.19134014 
   13600        13539    841.90787   -14.460848    242970.62  0.004766856    2.3027294     4.797359   0.16819414   0.68549243    1.2469674   0.20207545 
   13650        13589    905.56895    19.324088    242970.62  0.004766856    2.2706429    4.9539045   0.20101184   0.66961667    1.2135532    0.1864612 
   13700        13639    889.49777   -20.608941    242970.62  0.004766856    2.5473696    5.1830112   0.15820181   0.98110531    1.1896531   0.21840939 
   13750        13689    887.33181    15.622563    242970.62  0.004766856    2.7056045    5.3348282   0.23173594   0.88590415    1.4061169   0.18184742 
   13800        13739    924.95695   -59.798751    242970.62  0.004766856    2.6218587    5.3625682   0.19520426     0.921474    1.2992882   0.20589218 
   13850        13789    955.80258    31.840678    242970.62  0.004766856     2.492872    5.3249792   0.19072075   0.89066227    1.2187823   0.19270674 
   13900        13839    878.50202   -30.103624    242970.62  0.004766856     2.630976    5.2340365   0.20034309   0.80893643    1.4036073   0.21808918 
   13950        13889     938.6307    98.517973    242970.62  0.004766856    2.3429254    5.1241512   0.20585189    0.7928125    1.1507077   0.19355339 
   14000        13939    862.05276   -66.710926    242970.62  0.004766856    2.4682101    5.0225303   0.17623104   0.67698301    1.3847743   0.23022174 
   14050        13989    899.99881     40.54473    242970.62  0.004766856    2.2956787    4.9624356   0.22234166   0.67778698    1.1680646   0.22748551 
   14061        14000    879.45444    25.426915    242970.62  0.004766856    2.3468061    4.9526887   0.19092086   0.71066514    1.2367489   0.20847123 
Loop time of 1.72932 on 8 procs for 10000 steps with 168 atoms

Performance: 499.619 ns/day, 0.048 hours/ns, 5782.632 timesteps/s
99.9% CPU use with 8 MPI tasks x no OpenMP threads

MPI task timing breakdown:
Section |  min time  |  avg time  |  max time  |%varavg| %total
---------------------------------------------------------------
Pair    | 0.013514   | 0.082138   | 0.25842    |  26.5 |  4.75
Bond    | 0.060525   | 0.22868    | 0.54832    |  33.3 | 13.22
Kspace  | 0.68696    | 1.1011     | 1.2945     |  18.5 | 63.67
Neigh   | 0.041171   | 0.041645   | 0.042201   |   0.2 |  2.41
Comm    | 0.13485    | 0.19535    | 0.22758    |   6.6 | 11.30
Output  | 0.016717   | 0.017033   | 0.01912    |   0.6 |  0.98
Modify  | 0.030701   | 0.051377   | 0.069538   |   5.9 |  2.97
Other   |            | 0.01198    |            |       |  0.69

Nlocal:        21.0000 ave          41 max          14 min
Histogram: 4 1 1 0 0 1 0 0 0 1
Nghost:        98.0000 ave         125 max          73 min
Histogram: 1 1 1 0 1 1 0 2 0 1
Neighs:        177.500 ave         392 max          56 min
Histogram: 2 0 2 2 0 0 1 0 0 1

Total # of neighbors = 1420
Ave neighs/atom = 8.4523810
Ave special neighs/atom = 9.1428571
Neighbor list builds = 594
Dangerous builds = 12
undump dumpeq2


write_data   system_after_eq2_reorient.data
System init for write_data ...
PPPM initialization ...
  using 12-bit tables for long-range coulomb (../kspace.cpp:340)
  G vector (1/distance) = 0.077713503
  grid = 4 4 4
  stencil order = 5
  estimated absolute RMS force accuracy = 0.033197132
  estimated relative force accuracy = 9.9972176e-05
  using double precision KISS FFT
  3d grid and FFT values/proc = 343 8

unfix fxnvt


# -- equilibration part 3: Equilibrating the density (NPT) --

# Originally, the simulation box (in "system.data" and "system.lt") was
# unrealistically large.  The spacing between the molecules was large also.
# I did this to enable the molecules to move freely and reorient themselves.
# After doing that, we should run the simulation under NPT conditions to
# allow the simulation box to contract to it's natural size.
# To help it collapse, we begin the simulation at a relatively high pressure
# Later on, we will slowly decrease it to 1 bar.

# First cool the system. (Do this at high pressure to avoid bubble formation.)

dump dumpeq3 all custom 200 traj_eq3_npt.lammpstrj id mol type x y z ix iy iz
fix fxnpt all npt temp 900.0 260.0 100.0 iso 500.0 500.0 1000.0 drag 2.0

timestep        1.0
run             20000
PPPM initialization ...
  using 12-bit tables for long-range coulomb (../kspace.cpp:340)
  G vector (1/distance) = 0.077713503
  grid = 4 4 4
  stencil order = 5
  estimated absolute RMS force accuracy = 0.033197132
  estimated relative force accuracy = 9.9972176e-05
  using double precision KISS FFT
  3d grid and FFT values/proc = 343 8
Per MPI rank memory allocation (min/avg/max) = 11.96 | 12.19 | 12.42 Mbytes
Step Time Temp Press Volume Density PotEng TotEng E_pair E_bond E_angle E_dihed 
   14061        14000    879.45444    25.426915    242970.62  0.004766856    2.3468061    4.9526887   0.19092086   0.71066514    1.2367489   0.20847123 
   14100        14039    866.92456    1.6757317    240081.19 0.0048242263    2.3938588    4.9626144   0.19992046    0.7295077    1.2733684    0.1910622 
   14150        14089    866.39992    47.721161    229064.42 0.0050562457    2.4323515    4.9995526   0.21639992   0.83853243    1.1434064   0.23401275 
   14200        14139     882.5559   -17.511905    214142.12 0.0054085856    2.4063891    5.0214615   0.21763184   0.79809096    1.1785583   0.21210808 
   14250        14189    824.67009   -65.025705    199838.53 0.0057957089    2.6074732    5.0510261   0.20822092   0.92411912    1.2747934    0.2003398 
   14300        14239    843.42358    122.62172     187784.4 0.0061677432    2.5685243     5.067645   0.23654982   0.89482112    1.2626034   0.17454996 
   14350        14289    845.78831   -95.372143     177392.6 0.0065290546    2.5755498    5.0816774   0.18387239   0.91005977    1.2998946   0.18172306 
   14400        14339    930.20754    235.31971    167798.95 0.0069023434    2.3143284    5.0705958   0.22683837   0.70201748    1.2198493   0.16562328 
   14450        14389    897.75768   -73.286121    158896.77 0.0072890465    2.4264796    5.0865959   0.13040366   0.81884567    1.2916953   0.18553501 
   14500        14439    956.54425    117.96959    150503.18  0.007695558    2.2384385    5.0727433   0.21897135   0.68825035    1.1713609   0.15985584 
   14550        14489    907.79603   -11.615645     142967.2 0.0081012008    2.3917396    5.0816002   0.19447362   0.77834329    1.2128434   0.20607933 
   14600        14539    927.90338    90.968447    136002.11  0.008516088     2.342442     5.091882   0.21546395   0.75615588    1.1640682   0.20675396 
   14650        14589    916.11029   -116.22766    129699.17 0.0089299413    2.3658878    5.0803841   0.18240608   0.83210392    1.1712307   0.18014708 
   14700        14639    893.99352    72.035237    123816.95 0.0093541795     2.436811    5.0857738   0.20843913   0.80786479    1.2013145    0.2191926 
   14750        14689    914.35771   -63.554217    118391.13 0.0097828776    2.3614957     5.070799   0.16677125   0.88092557    1.1158882   0.19791066 
   14800        14739    929.60598   -169.42179    113346.96  0.010218236    2.3166513    5.0711363   0.18418549    0.9264233    1.0195819   0.18646062 
   14850        14789    947.77715    16.152034    108619.23  0.010662992    2.2404154    5.0487427   0.21733401   0.81430657    1.0504483   0.15832654 
   14900        14839    909.45293   -21.350802    104229.21  0.011112105    2.3414457    5.0362158    0.1874492   0.74242163    1.2101964   0.20137847 
   14950        14889    921.65044   -108.62667    100092.24  0.011571386    2.2831333    5.0140455   0.18935553   0.80715329    1.1124337    0.1741908 
   15000        14939    959.73889     258.9223    96215.997  0.012037561    2.1650896    5.0088603   0.21352832   0.67149951    1.0993928   0.18066895 
   15050        14989    930.08625   -363.48241    92589.084  0.012509099    2.2306307    4.9865387   0.15723339   0.74945986    1.1114144   0.21252303 
   15100        15039    897.67262    246.47836    89149.742  0.012991692    2.3225988     4.982463   0.21171373   0.73631322    1.1609487   0.21362317 
   15150        15089    876.14511   -100.84562    85923.304  0.013479532    2.3734454    4.9695222   0.17749227   0.77417169    1.2442353   0.17754617 
   15200        15139    939.35833    128.96911     82891.36  0.013972578    2.1710468    4.9544286   0.14954466   0.73307617    1.0945302   0.19389579 
   15250        15189    903.31348    231.54024    79986.854  0.014479954    2.2666162    4.9431947   0.20770278   0.70429001    1.1729795    0.1816439 
   15300        15239    847.70172   -10.645539    77305.074  0.014982276     2.439906    4.9517031   0.18559854   0.70147805    1.3169193   0.23591017 
   15350        15289    938.13119    150.50772    74715.176  0.015501616    2.1608037    4.9405494   0.23395076   0.66295816    1.0766451   0.18724977 
   15400        15339    821.68364   -278.43838    72339.699  0.016010655      2.50229    4.9369938   0.19598213   0.89572069    1.2064432   0.20414401 
   15450        15389    832.99957    113.17494    70066.824   0.01653002    2.4507439    4.9189775   0.22227347   0.79193674     1.192177   0.24435667 
   15500        15439    854.79691   -60.292713    67922.928  0.017051768    2.3749471    4.9077678   0.17535084   0.81732152    1.2033834   0.17889136 
   15550        15489    906.39161    32.389826    65850.078  0.017588528    2.2141112    4.8998104   0.20213223   0.71519028    1.0810416   0.21574709 
   15600        15539    886.77175   -34.945224    63912.967  0.018121612    2.2616386    4.8892028   0.18624649   0.64194305    1.2715944   0.16185464 
   15650        15589      853.574    135.95959    62036.673  0.018669698    2.3403968    4.8695939   0.22600419   0.69564627    1.1387951   0.27995129 
   15700        15639    850.77811     179.6471    60264.154  0.019218821    2.3381827    4.8590954   0.18965645   0.71062404    1.2178374   0.22006477 
   15750        15689    811.96749   -35.748689    58565.446  0.019776268    2.4603745    4.8662887   0.22499525   0.74963691    1.2651153   0.22062708 
   15800        15739     901.8168    155.95162    56951.279  0.020336786    2.1693788    4.8415225   0.19288928   0.66991213    1.0791193   0.22745809 
   15850        15789    834.31679    56.050295    55432.135  0.020894125    2.3656916    4.8378283   0.18839271   0.60582801    1.3440135    0.2274574 
   15900        15839    912.19302    355.23618    53964.967  0.021462182    2.1173693    4.8202584   0.20526828   0.65113731    1.0702498   0.19071392 
   15950        15889    872.29946   -282.53556    52586.939  0.022024594    2.2162332    4.8009151     0.175885   0.67834334    1.1453053   0.21669958 
   16000        15939    887.69527    295.86622    51225.606  0.022609903    2.1552555    4.7855562   0.18747692   0.66685878    1.0995797   0.20134013 
   16050        15989    869.04595    155.93155    49936.769   0.02319345    2.1934787    4.7685201   0.21079661    0.6324425    1.1651707   0.18506884 
   16100        16039     841.2423    242.42207    48712.821  0.023776204    2.2599896     4.752647   0.15621728   0.67617449     1.211304   0.21629381 
   16150        16089    909.41676    223.25739    47519.629  0.024373212    2.0422622    4.7369252   0.17076332   0.75872619   0.95076054   0.16201219 
   16200        16139    859.07454    8.3741208    46416.944  0.024952224    2.1782954    4.7237909    0.1893446   0.74211499     1.022176   0.22465981 
   16250        16189    884.44719    86.844389    45380.458   0.02552213    2.0921675    4.7128439   0.15769321   0.65740375    1.0776734   0.19939713 
   16300        16239    865.89266      111.157    44354.539  0.026112457    2.1228793    4.6885773   0.19767938   0.59549695    1.1587426   0.17096033 
   16350        16289    810.18546    84.447507    43376.939  0.026700962    2.2687775    4.6694114   0.15413715   0.64106622    1.2737108    0.1998633 
   16400        16339    861.84574    321.17489     42405.04  0.027312932     2.118333    4.6720398   0.20130246   0.69686359    1.0345571   0.18560986 
   16450        16389    880.47355    -191.7964    41483.357  0.027919775    2.0432368     4.652139   0.17645084   0.77667343   0.91705792   0.17305461 
   16500        16439    852.82084    179.00735     40595.44  0.028530445     2.120698    4.6476634    0.1744063   0.70780546    1.0342809   0.20420538 
   16550        16489     858.7805    93.664294    39713.439  0.029164081    2.0860771    4.6307014   0.19966473   0.71506046    1.0037237   0.16762824 
   16600        16539    792.15403    257.13398    38893.014   0.02977928    2.2688182    4.6160238   0.17586474    0.6995127    1.1697184   0.22372243 
   16650        16589    784.58638    251.47861    38084.307  0.030411633    2.2773353    4.6021174   0.22758386   0.77738458    1.0572519   0.21511498 
   16700        16639    876.85591   -268.05068    37317.974  0.031036142    1.9836984    4.5818813   0.16750892   0.67446926   0.93252081   0.20919938 
   16750        16689    869.40486    48.121698    36577.367  0.031664553    1.9915879    4.5676929   0.17172068    0.6506268     1.025067   0.14417339 
   16800        16739    834.76722   -51.082845    35859.179  0.032298731    2.0801366     4.553608   0.20871631   0.69109957   0.96489166   0.21542911 
   16850        16789    850.98735    695.10031    35192.823  0.032910289    2.0195973    4.5411299   0.19459859   0.59882427     1.048737   0.17743748 
   16900        16839    823.32746   -387.85106    34554.061  0.033518664    2.0943821    4.5339566   0.14546706   0.70348954    1.0830222   0.16240332 
   16950        16889    899.18734    520.81531    33920.507  0.034144713     1.845676    4.5100284   0.18449214   0.66497832   0.80222749   0.19397802 
   17000        16939    853.01691   -579.47067    33319.426  0.034760682    1.9671253    4.4946717    0.1140993   0.71317085   0.99169525   0.14815992 
   17050        16989    826.23084    538.31997     32709.24  0.035409138      2.03698    4.4851574   0.17373247   0.65704775   0.99512629   0.21107349 
   17100        17039    857.57475    101.66609    32130.057   0.03604743      1.93004    4.4710915   0.16579773   0.69993686   0.88416589   0.18013948 
   17150        17089    797.97353    112.78033    31577.559  0.036678135    2.0999933    4.4644424   0.16560052   0.78338248   0.96842175   0.18258851 
   17200        17139    835.19826    393.44537    31049.985  0.037301338    1.9688604    4.4436089    0.1752873   0.68923734   0.91179144   0.19254432 
   17250        17189    828.45181   -234.06218    30555.937   0.03790445    1.9717687     4.426527   0.18372618   0.65263484     0.961355   0.17405267 
   17300        17239    840.77493    234.72505    30070.411  0.038516467    1.9211244     4.412397   0.17487156   0.55374465    1.0047921   0.18771604 
   17350        17289    806.41001    261.15485    29596.154  0.039133665    2.0122143    4.4016613   0.19877298   0.60890564   0.99788173   0.20665392 
   17400        17339    849.81236   -771.87328    29138.352  0.039748507    1.8631694    4.3812205   0.11014817   0.68246742   0.95005115   0.12050264 
   17450        17389    791.67128    422.09597    28663.591   0.04040687    2.0253146    4.3710897   0.18306381   0.64556484   0.96843706   0.22824888 
   17500        17439    793.92494    610.99989    28206.632  0.041061477    2.0104187    4.3628716    0.1631309   0.70466338   0.95183994   0.19078451 
   17550        17489      804.639   -196.71006    27763.081  0.041717487    1.9773651    4.3615644   0.13126007   0.68391658   0.99081966   0.17136877 
   17600        17539    792.46025     738.8815    27317.318  0.042398231    1.9995589    4.3476719   0.17208341   0.60204091    1.0968168   0.12861784 
   17650        17589    802.68217   -721.81452    26902.815  0.043051479    1.9458696    4.3242707   0.14249229   0.61228781     1.005545   0.18554443 
   17700        17639    832.10832    720.40795    26485.736  0.043729424    1.8358631     4.301456   0.17425373   0.51006198    1.0003032    0.1512442 
   17750        17689    787.25446   -231.58498    26097.293  0.044380311    1.9658343    4.2985222   0.16146548   0.61328345   0.99339436   0.19769104 
   17800        17739    769.33831    303.15466    25732.909  0.045008747     2.032345     4.311946   0.19946531   0.64546363    1.0186027   0.16881337 
   17850        17789    805.78171   -534.32905    25378.151  0.045637919    1.9197457     4.307331    0.1570641   0.68378051   0.90321597   0.17568513 
   17900        17839    770.11552    22.950739    25030.258  0.046272235    2.0212684    4.3031724   0.14954973   0.63141216    1.0137204   0.22658617 
   17950        17889    806.91229    169.78912    24674.484   0.04693942    1.9000066    4.2909418   0.16158149   0.67687235    0.8740608   0.18749192 
   18000        17939     788.7864    81.346326    24335.121   0.04759401    1.9491351    4.2863621   0.19185732   0.69020192   0.89089899   0.17617684 
   18050        17989    767.82846   -157.65157    24001.458  0.048255651    2.0010902    4.2762175   0.14943792   0.68276219   0.99401774   0.17487234 
   18100        18039    802.83321     1101.489    23675.128  0.048920791    1.8856455    4.2644942   0.17540737   0.59959731    0.9401962   0.17044461 
   18150        18089    775.52541   -556.04115    23357.905  0.049585181    1.9619145    4.2598484    0.1490121   0.68427151   0.97311181   0.15551911 
   18200        18139    785.12801    316.75738    23045.825   0.05025665    1.9208472    4.2472342   0.13604808   0.65231653   0.95129187   0.18119074 
   18250        18189     771.0963    145.14065     22734.39  0.050945109    1.9518606    4.2366707    0.1807232    0.5701028    1.0276243   0.17341028 
   18300        18239    800.38904    256.42055    22436.716   0.05162101    1.8657783    4.2373847   0.13944095   0.56812195    1.0070011    0.1512143 
   18350        18289    792.44864    344.22002    22136.584  0.052320898    1.8755069    4.2235855   0.19774696   0.60317599   0.89341597   0.18116803 
   18400        18339     755.4965   -75.654164     21851.07  0.053004543    1.9808558    4.2194426   0.15238289   0.68755227   0.98997258   0.15094805 
   18450        18389    777.61002     268.6059    21566.426  0.053704122    1.9061894    4.2103001   0.16181077   0.69714364   0.89634018   0.15089483 
   18500        18439    764.75227    157.38284    21285.255  0.054413535    1.9381973    4.2042096   0.18761698    0.5869043     1.024278   0.13939799 
   18550        18489    733.07063    115.79104     21021.15  0.055097175    2.0237755     4.195913   0.17644712   0.63297022    1.0197037    0.1946545 
   18600        18539    779.27324    -249.0515    20753.518  0.055807694     1.863793     4.172832   0.15651772   0.56019217    1.0121079   0.13497525 
   18650        18589    752.24464    692.11187    20499.541  0.056499117    1.9467914    4.1757428   0.16211487   0.57706251    1.0442217   0.16339237 
   18700        18639    718.06532   -408.50398    20252.225  0.057189074    2.0357223     4.163398   0.13996661     0.622808    1.0831121    0.1898356 
   18750        18689    720.78552    244.60137    20002.589  0.057902803    2.0236398    4.1593757   0.15931435   0.61954099     1.078858   0.16592644 
   18800        18739    723.19414    -234.8618    19766.478  0.058594453    2.0073389    4.1502117   0.16460779   0.71876041   0.99158123   0.13238951 
   18850        18789    775.27091    225.35315    19536.973  0.059282776    1.8348587    4.1320384   0.13286405   0.59175383   0.96411627   0.14612452 
   18900        18839    753.35222    480.08399    19318.094  0.059954463    1.8946632    4.1268964   0.19440201   0.55848877   0.99565069   0.14612169 
   18950        18889    753.94178    648.87708    19130.313  0.060542971    1.8834297    4.1174098   0.12322967    0.6823036    0.9030516   0.17484481 
   19000        18939    706.81155    -479.1056    18939.427  0.061153167    2.0108217    4.1051518   0.18398566   0.61608391    1.0163126   0.19443953 
   19050        18989    758.91959    812.90835    18766.196  0.061717675    1.8570969    4.1058266   0.18481346   0.63377423   0.91649342    0.1220158 
   19100        19039    730.16027       69.496    18599.628  0.062270385    1.9322036    4.0957175   0.17097312   0.63775683   0.95893114   0.16454246 
   19150        19089    736.89632    1354.5486    18437.502  0.062817944    1.8908172    4.0742904   0.16564864   0.63110729   0.91761765    0.1764436 
   19200        19139    729.39667   -831.64298    18284.213  0.063344591    1.9053698    4.0666211   0.10446882    0.6164196    1.0091123   0.17536909 
   19250        19189    712.22697    1588.9674    18112.371  0.063945576    1.9557301    4.0661065   0.21439308   0.58377486    0.9689615   0.18860069 
   19300        19239    691.64843   -652.73161    17960.262  0.064487141    2.0100031    4.0594039    0.1200048   0.65991784    1.0540572   0.17602333 
   19350        19289     769.8766    1726.2843     17795.93  0.065082632    1.7703206    4.0515167   0.15384538   0.56599313   0.86915476   0.18132735 
   19400        19339    733.49069   -750.76773    17637.606  0.065666847    1.8591139    4.0324961   0.14035295   0.60051062   0.94909481   0.16915554 
   19450        19389    755.68514    657.04235    17472.729  0.066286496    1.7799205    4.0190663   0.15455007   0.59695327   0.84948775    0.1789294 
   19500        19439    743.49056   -210.11707    17297.442  0.066958221    1.8270149    4.0300274   0.17736316   0.58253326   0.90539177   0.16172673 
   19550        19489    736.48951   -217.75747    17123.613  0.067637944     1.836662    4.0189299   0.14302659   0.58930649   0.90073057   0.20359839 
   19600        19539    759.83889   -532.18486    16948.349  0.068337393    1.7701075    4.0215611   0.14473521   0.64761148   0.76158424   0.21617656 
   19650        19589    737.20611   -99.337932    16767.186  0.069075752    1.8304552    4.0148464   0.18378934     0.598055   0.86157741   0.18703347 
   19700        19639    744.93075   -163.98849    16594.721   0.06979364    1.8004034    4.0076833   0.13555951   0.63472766   0.83692269   0.19319356 
   19750        19689    754.30644     1239.097    16412.029  0.070570553    1.7709451    4.0060057   0.19415781   0.55296245   0.81068328   0.21314157 
   19800        19739    743.37714   -319.92931    16245.334  0.071294685    1.8017295    4.0044058   0.15059236   0.65686256   0.83353395    0.1607406 
   19850        19789    772.18246    377.11991    16084.999  0.072005348    1.7028568    3.9908853   0.13936078   0.59107294   0.79267697   0.17974614 
   19900        19839     696.2304    32.237436    15927.699  0.072716465    1.9177961    3.9807735   0.18930784   0.57172315   0.98915719   0.16760793 
   19950        19889    738.75835    581.17618     15777.55  0.073408481    1.7844035    3.9733941   0.14848084   0.60237742    0.8736666   0.15987865 
   20000        19939    686.42606    350.73916    15628.438  0.074108875    1.9256441    3.9595706   0.16209585   0.65937325   0.91987679   0.18429819 
   20050        19989    716.77022   -13.587239    15485.878  0.074791106    1.8365298    3.9603681   0.16719853   0.59918379   0.87900622   0.19114125 
   20100        20039    704.64487    76.140935    15346.542   0.07547016    1.8610068    3.9489168   0.15248783   0.66964309   0.83589732   0.20297855 
   20150        20089    689.01649   -135.41366    15202.642  0.076184517    1.8996678    3.9412699   0.17751066   0.67453601   0.84304145   0.20457969 
   20200        20139    722.04049    829.27826    15065.829  0.076876351    1.7983115    3.9377659   0.15611364   0.61542741     0.827876   0.19889441 
   20250        20189    725.75589   -105.73659    14927.743  0.077587478    1.7895527    3.9400162   0.16676367   0.65838849   0.79657165   0.16782893 
   20300        20239    678.71004    168.78013    14792.448  0.078297112    1.9100979    3.9211613   0.17764575   0.59953912   0.96333267   0.16958039 
   20350        20289    758.59841    212.86242    14663.935  0.078983298    1.6487707    3.8965487   0.13404555   0.56795237   0.79677134   0.15000141 
   20400        20339    673.18908   -298.00176    14530.556  0.079708306    1.8977457    3.8924501   0.17239447   0.64987184   0.86887494   0.20660443 
   20450        20389    703.74774    1117.3534    14401.512  0.080422525    1.8124972    3.8977489   0.18149935   0.60668813   0.81310246   0.21120722 
   20500        20439    701.55136   -340.35662    14276.253  0.081128146    1.8027778    3.8815216   0.15649909   0.67871985   0.81229241   0.15526644 
   20550        20489    652.08186    625.27309    14149.829     0.081853    1.9514633    3.8836256   0.19891357   0.70402766   0.83386807   0.21465397 
   20600        20539    685.01166   -58.547353    14032.351  0.082538271    1.8387118    3.8684473   0.16226817   0.72954062   0.77880681   0.16809623 
   20650        20589    714.36598    290.08286    13914.282  0.083238642    1.7329271    3.8496415   0.14647276   0.63393557   0.80638074   0.14613805 
   20700        20639    715.36078   -622.52894    13790.552  0.083985466    1.7107846    3.8304466   0.13856376   0.59648982   0.78649773   0.18923329 
   20750        20689    738.42092    33.808443    13671.149  0.084718994    1.6350099    3.8230007   0.14945746   0.50716962   0.80952893   0.16885392 
   20800        20739    722.00434   -658.01979    13557.213  0.085430979    1.6655248    3.8048722   0.15946013   0.55730349    0.7827151   0.16604611 
   20850        20789    673.52501    921.71825    13446.289  0.086135736    1.7953109    3.7910107   0.16334146   0.61828358   0.80346005   0.21022583 
   20900        20839    667.96568   -880.65496    13337.452  0.086838625    1.8202323    3.7994594   0.16833552   0.64141583   0.79994175   0.21053918 
   20950        20889    686.85084    722.82982     13235.02  0.087510707    1.7705629     3.805748   0.13300507   0.65672981   0.81884087   0.16198715 
   21000        20939    622.21922    375.60827    13121.936  0.088264867    1.9422962    3.7859736   0.18429229   0.65993774   0.88971241   0.20835379 
   21050        20989    662.29199    100.30218    13012.725  0.089005645    1.8215008    3.7839165   0.13829465   0.63743124   0.84990964   0.19586532 
   21100        21039    626.81176    502.57362     12896.09   0.08981063    1.9228283    3.7801136   0.18794829    0.7047954   0.84044583   0.18963878 
   21150        21089    646.78075   -207.44901    12782.432  0.090609204     1.856933    3.7733878   0.16360463   0.64716124   0.86030903   0.18585812 
   21200        21139    684.10229    340.01207    12671.704  0.091400968    1.7332076    3.7602486    0.1469164    0.6413107   0.76232123    0.1826593 
   21250        21189    707.04174   -489.34402    12560.697  0.092208732      1.65836    3.7533722   0.13467935   0.54019819   0.79912318   0.18435931 
   21300        21239    675.47221    212.61201    12450.578  0.093024277    1.7363023    3.7377718   0.17852999   0.52062401   0.80738429   0.22976402 
   21350        21289    691.58736    449.57974    12349.293  0.093787227     1.694746    3.7439658   0.12467036   0.51107301   0.86037311   0.19862955 
   21400        21339     655.8477     145.1617    12250.654   0.09454238    1.8053177    3.7486384   0.17205795   0.54781197   0.84794807   0.23749969 
   21450        21389    650.57877    369.89713    12154.177  0.095292832    1.8090111    3.7367197   0.17160435   0.61389582   0.80466716   0.21884378 
   21500        21439    671.66235   -878.90612    12056.801  0.096062461    1.7491151    3.7392957   0.14903207    0.6372757   0.79338282   0.16942449 
   21550        21489     648.3846    19.536062    11957.854  0.096857347    1.8013856    3.7225927   0.16997361   0.62565062   0.80412833   0.20163307 
   21600        21539    623.45579    13.465922    11861.451  0.097644546    1.8562011    3.7035425   0.18175643   0.64680702   0.83439741   0.19324029 
   21650        21589    656.62003    669.81345    11769.756  0.098405265    1.7497938    3.6954031   0.15320836   0.59406016   0.79326063   0.20926469 
   21700        21639    682.99626    159.95642    11682.448  0.099140695    1.6742124    3.6979762   0.18062131   0.53937517   0.80338744   0.15082846 
   21750        21689    660.99768   -885.92698    11598.554  0.099857792    1.7328685     3.691449   0.15946152   0.65164209   0.72655298   0.19521194 
   21800        21739    669.92151   -788.73992    11511.367   0.10061411    1.6965204    3.6815428   0.16513952   0.59967175   0.76888738   0.16282172 
   21850        21789    659.68328    1248.6742    11424.474   0.10137937    1.7224973    3.6771831   0.18213343   0.68332911   0.67257937   0.18445537 
   21900        21839    686.90777    664.07241    11346.129    0.1020794    1.6187873    3.6541412   0.13326515   0.57848722   0.72869449   0.17834047 
   21950        21889    694.90044    46.295454    11267.951   0.10278763    1.5825634    3.6416001   0.12793968   0.58125653   0.70546194   0.16790527 
   22000        21939     692.0172   -53.747792    11187.493   0.10352686    1.5875569    3.6380504   0.15090833   0.53039736   0.75106513   0.15518612 
   22050        21989    659.72396    1067.4401    11106.374     0.104283    1.6824916     3.637298   0.14994944   0.63684903   0.74782178   0.14787133 
   22100        22039    627.80092   -502.98183    11027.254   0.10503122    1.7547238    3.6149401   0.12925507   0.70749137   0.75127543   0.16670195 
   22150        22089     694.5858    286.67281    10947.053   0.10580071    1.5441987    3.6023031   0.14143798   0.59064709   0.64500714   0.16710651 
   22200        22139    656.01359   -1152.5776    10872.135   0.10652976    1.6571142    3.6009265   0.11271149   0.59881725   0.75137242   0.19421304 
   22250        22189    633.20827    1216.5974    10793.514   0.10730574      1.70736    3.5835986   0.18875845    0.5259621   0.82327176   0.16936772 
   22300        22239    612.49082   -469.88819    10724.857   0.10799267    1.7807589    3.5956103   0.16661395   0.59646671   0.81489181   0.20278642 
   22350        22289    645.71461    947.39692    10657.146   0.10867881    1.6655034    3.5787992   0.14934507   0.50980585   0.84256038   0.16379214 
   22400        22339    669.65812    823.80869    10595.279    0.1093134    1.5730557    3.5572976   0.13237579   0.50983709   0.74967791   0.18116491 
   22450        22389    661.69891    732.20664    10533.347   0.10995612    1.5880232    3.5486814   0.14070997   0.50410923   0.79593473   0.14726922 
   22500        22439    606.60679     1239.947    10475.114   0.11056739    1.7369429    3.5343596   0.14835163    0.5175754   0.84097019    0.2300457 
   22550        22489    649.85169    1257.2087    10414.763    0.1112081    1.6136055    3.5391597   0.15857892   0.45653244    0.8254774   0.17301673 
   22600        22539    647.38404    461.58768    10356.911   0.11182928    1.6120569    3.5302992   0.11848869   0.57128439   0.75825933   0.16402445 
   22650        22589    651.25953     272.1571    10299.794   0.11244943    1.5987694    3.5284951   0.13825379   0.59870605   0.69808562   0.16372398 
   22700        22639    571.77283   -1524.9638    10240.342   0.11310228    1.8297938     3.523995   0.15799339   0.62276677   0.83517371    0.2138599 
   22750        22689    636.43748    804.26169    10182.425   0.11374559    1.6471155    3.5329225   0.16162541   0.57341316    0.7095791   0.20249782 
   22800        22739    635.37521   -1254.4397    10128.168   0.11435493    1.6704482    3.5531076   0.15399029   0.54466176   0.78073626   0.19105986 
   22850        22789    637.84536    467.02226     10072.24   0.11498991    1.6533223     3.543301   0.16097642   0.53253881   0.77572228   0.18408483 
   22900        22839     595.2706    195.24805    10018.215   0.11561001     1.761581    3.5254077   0.16760809   0.54187072    0.8601517   0.19195046 
   22950        22889    616.45963   -77.720431    9966.8915   0.11620534    1.6988678    3.5254791   0.14178346    0.5358373   0.82802444   0.19322263 
   23000        22939    655.60783    2046.8761     9911.852   0.11685061    1.5817431    3.5243531   0.13511845   0.50148612    0.7830183   0.16212023 
   23050        22989    621.21026    -355.6059    9857.8619   0.11749059    1.6565655    3.4972532   0.14591034   0.50705511    0.8033034   0.20029663 
   23100        23039    656.70871    1861.2727    9804.2673   0.11813284    1.5406581    3.4865301   0.13184925   0.49435767   0.76254742    0.1519038 
   23150        23089    612.72853    532.98153    9756.6338   0.11870959    1.6648564    3.4804122   0.12991905   0.53221599   0.83138904   0.17133235 
   23200        23139    631.81206    -594.6148    9705.9643    0.1193293    1.5952703    3.4673718   0.12182687   0.51674507   0.79303902    0.1636593 
   23250        23189    618.79286    94.704557    9654.7568   0.11996221    1.6201385    3.4536633  0.099781124   0.56867098   0.80851524   0.14317115 
   23300        23239    628.80326   -419.79494    9598.9751   0.12065934    1.5694505    3.4326368   0.11859035   0.53833237   0.74423489   0.16829289 
   23350        23289    622.28964   -328.94412     9544.041   0.12135383    1.5832477    3.4271337   0.14544968   0.52911686   0.74742487   0.16125629 
   23400        23339    607.74246    808.04566    9493.9533   0.12199407    1.6200697    3.4208514    0.1305684   0.53704597   0.78232926   0.17012603 
   23450        23389    587.59428   -601.93729    9447.1004    0.1225991    1.6746927     3.415774   0.12797633   0.62244181   0.73019417   0.19408036 
   23500        23439    601.78792   -695.19794     9401.765   0.12319027    1.6316515    3.4147895   0.11665602   0.63513383   0.71472723   0.16513438 
   23550        23489    623.30407    1984.9106    9357.8998   0.12376773    1.5576823    3.4045741   0.12753325   0.49473845    0.7271092   0.20830142 
   23600        23539    586.04374   -378.42904    9312.3235   0.12437347      1.65884     3.395327   0.14355239   0.56462179    0.7412912   0.20937463 
   23650        23589    610.04331    768.26616    9265.1593   0.12500659    1.5855644    3.3931636   0.12349216   0.54360395   0.73109267   0.18737558 
   23700        23639     556.1424     280.6205    9214.2331   0.12569749    1.7380373    3.3859245   0.13919137   0.53262668   0.79506354   0.27115567 
   23750        23689    557.55288   -77.762108    9160.6808    0.1264323    1.7273428    3.3794094   0.14534326   0.51085395   0.83874444   0.23240116 
   23800        23739    606.94404    1332.2177    9108.3541   0.12715865    1.5811109    3.3795269   0.12949119   0.49441088   0.75630835    0.2009005 
   23850        23789    578.58094    1878.3528    9059.7262   0.12784117    1.6603408     3.374715   0.12187892   0.46153484   0.87605144   0.20087561 
   23900        23839    599.77824    1434.0252    9011.1796    0.1285299     1.583033    3.3602162   0.14761439   0.40866537   0.84157572   0.18517757 
   23950        23889    558.36375   -1245.0284    8967.9194   0.12914991    1.6978379    3.3523071   0.11882547    0.5431452   0.83527481   0.20059237 
   24000        23939    617.32687    2733.2129    8918.5407   0.12986496    1.5059051     3.335086   0.17226071   0.45011188   0.70360333   0.17992914 
   24050        23989    581.99618   -848.71935     8873.678   0.13052152    1.6114761    3.3359699   0.11257241   0.46842683   0.87425624   0.15622066 
   24100        24039     619.7822    1647.6687    8822.3464   0.13128095    1.4782517    3.3147079   0.13616049   0.44796648   0.70396139    0.1901633 
   24150        24089    586.77032   -1198.6201    8772.3761   0.13202876    1.5760277    3.3146676   0.11713823   0.51384136   0.74361525   0.20143288 
   24200        24139    554.29701   -1087.5105    8725.1429    0.1327435     1.669734    3.3121532   0.12324098    0.5844428   0.75686379   0.20518641 
   24250        24189     581.7393   -181.43887    8675.0422   0.13351013     1.593423    3.3171556   0.13644824   0.58398142   0.68378506   0.18920826 
   24300        24239    568.66949    559.81021     8630.201   0.13420382     1.618087    3.3030928  0.093759556   0.55865772    0.7403842    0.2252855 
   24350        24289    544.40647   -1196.0828    8583.7545      0.13493    1.6862034    3.2993163   0.10133558   0.57939717    0.8086868   0.19678383 
   24400        24339    615.25155    1550.7932    8532.6691   0.13573783    1.4773821    3.3004137   0.15316037   0.46938434   0.67506602   0.17977132 
   24450        24389    613.15147   -1233.8418    8486.7936   0.13647156    1.4669848    3.2837938   0.10288698   0.48202846   0.67846255   0.20360681 
   24500        24439    622.97699    1998.3423    8440.1429   0.13722587    1.4424973      3.28842   0.16167579   0.44997385   0.63318307   0.19766462 
   24550        24489    593.78364    1556.3886    8399.4554    0.1378906    1.5067045    3.2661253   0.15280879   0.48910232   0.70475124   0.16004217 
   24600        24539    578.09774   -1277.8575    8361.0899   0.13852332    1.5409898    3.2539322   0.10437233   0.53148449   0.71848498   0.18664801 
   24650        24589    604.77565    1149.0848    8317.6513   0.13924676    1.4375883    3.2295792   0.12322171   0.47725203   0.68656408   0.15055049 
   24700        24639    579.11887   -993.15388    8279.4335   0.13988952    1.4979924    3.2139605   0.11215486   0.55617872   0.65132592   0.17833286 
   24750        24689    581.46815   -429.88399    8243.9844   0.14049104    1.4720368     3.194966   0.11467763    0.4878382   0.68544994   0.18407104 
   24800        24739    603.16119    1596.1367    8215.7343   0.14097413    1.4011687    3.1883758   0.09986037   0.43040857   0.68385376     0.187046 
   24850        24789    554.34232   -1361.5632    8189.9794   0.14141745    1.5390456    3.1815992  0.087745694   0.51376015   0.75911648   0.17842332 
   24900        24839    548.33405    3635.9114    8161.0527    0.1419187    1.5497522    3.1745029    0.1455378   0.44737905   0.77365013   0.18318527 
   24950        24889    560.56894   -1602.4139    8133.0799   0.14240681    1.5212387    3.1822421  0.087903743   0.50279456    0.7989573   0.13158313 
   25000        24939    551.40118    1066.1643    8096.3057   0.14305364     1.523525    3.1573637   0.12968237   0.51679306   0.70932147   0.16772808 
   25050        24989    543.48373    1281.0632    8058.7924   0.14371954    1.5361437    3.1465225   0.11891166   0.48547589   0.77269383   0.15906229 
   25100        25039     524.1639   -1922.0627    8018.7231   0.14443771    1.5915474    3.1446802    0.1242593   0.50245163   0.77585409   0.18898233 
   25150        25089    584.02612    1679.9561     7976.104   0.14520949    1.4026136    3.1331222  0.096524233   0.46418402   0.69312003   0.14878534 
   25200        25139    564.49249   -1569.3157    7933.0286   0.14599796    1.4578238    3.1304529   0.10887009    0.4761699   0.70084193   0.17194187 
   25250        25189    571.59278    1525.1446    7891.1214    0.1467733    1.4264069    3.1200747   0.12889319    0.4561139   0.69088913    0.1505107 
   25300        25239    541.95664   -94.778193    7852.6288   0.14749277    1.5071908    3.1130448   0.11277246   0.47085553   0.78252901   0.14103385 
   25350        25289    528.53247   -31.042762    7818.1188   0.14814382    1.5342266    3.1003038  0.096021952    0.5274915   0.74487192   0.16584121 
   25400        25339     512.5625    295.41523     7781.046   0.14884965     1.584998    3.1037551   0.12853542   0.54054268   0.75377379   0.16214607 
   25450        25389    537.94704    379.23541    7746.4064   0.14951526    1.4933186    3.0872918   0.11088453   0.49830237   0.72146262   0.16266909 
   25500        25439    534.65612   -1563.0629     7712.565   0.15017131    1.4889707    3.0731927  0.099601488   0.46417381   0.77590023   0.14929522 
   25550        25489    537.95679    2075.0542    7676.1035   0.15088462    1.4780441    3.0720462   0.11896991   0.47218968   0.70901503   0.17786947 
   25600        25539    529.90512   -2119.7443    7638.3014   0.15163135    1.4912891    3.0614335   0.11375889   0.44319733   0.76126412   0.17306874 
   25650        25589     546.8452    3298.3622    7596.7681   0.15246036    1.4388527    3.0591918   0.13987991   0.46046131   0.70355655   0.13495493 
   25700        25639     486.7031   -1925.4429    7561.4894   0.15317167    1.6144294    3.0565633   0.14327884   0.50273823   0.80863615   0.15977614 
   25750        25689    517.22234     2270.992    7526.0512   0.15389292     1.520977    3.0535415   0.16511943   0.47784211   0.70052917   0.17748626 
   25800        25739    521.83912    -1225.479    7497.0088   0.15448908    1.4884259    3.0346702  0.084143758   0.51081915   0.76198027    0.1314827 
   25850        25789    558.45229   -61.199833    7462.7043   0.15519923     1.359536    3.0142677   0.12136003   0.47484837   0.59792312   0.16540451 
   25900        25839    504.33431    585.61013    7428.7779   0.15590801    1.5344815    3.0288579   0.10780209   0.50362157   0.75121581   0.17184198 
   25950        25889    519.85869    673.64298    7392.4061    0.1566751    1.4751439    3.0155201   0.13642436   0.50538275   0.66622738   0.16710945 
   26000        25939    534.27902   -227.66724    7359.0604   0.15738503    1.4157165    2.9988212   0.10145327   0.42206097   0.70406464   0.18813766 
   26050        25989    526.01441    1260.2225    7327.7268   0.15805802    1.4402362    2.9988522   0.13226048   0.44947892   0.69041195   0.16808486 
   26100        26039    571.43634    53.345547    7298.7685   0.15868512    1.2849763    2.9781806   0.12508874   0.38603532   0.60091959   0.17293269 
   26150        26089    530.71562    726.49532    7270.5194   0.15930168    1.4070344    2.9795805   0.10227916   0.45245679   0.70040379   0.15189469 
   26200        26139    523.02312   -638.19267    7242.6631   0.15991438     1.426279    2.9760316   0.12683933   0.36065519   0.73668346   0.20210102 
   26250        26189    580.60969    1487.1793    7210.5842   0.16062582    1.2382587    2.9586442   0.11662907   0.35208932   0.61225137   0.15728895 
   26300        26239    523.44968   -1746.8675    7180.2112   0.16130528    1.3920038    2.9430203  0.082543795   0.48164092    0.6444619   0.18335716 
   26350        26289    538.87074    196.83244    7147.0481   0.16205375    1.3309468     2.927657  0.093512574    0.4499991   0.59790169   0.18953343 
   26400        26339    514.31242     1338.771    7118.3158   0.16270787    1.4150581    2.9390003   0.11871704   0.48626861   0.67629116   0.13378128 
   26450        26389     540.9204    -806.7351    7096.9945   0.16319669    1.3254208    2.9282043  0.087111057   0.48441795   0.60833066   0.14556115 
   26500        26439    517.74753   -738.22745    7073.5204   0.16373827    1.3871725    2.9212931   0.12658669   0.42829094   0.64131007   0.19098476 
   26550        26489     526.3551   -104.91768    7050.4185   0.16427478    1.3407993    2.9004248  0.085273469   0.45638807   0.67626035   0.12287743 
   26600        26539    498.81786   -282.28581    7025.2716    0.1648628    1.4164762     2.894507   0.11003278   0.49671558   0.63872387   0.17100396 
   26650        26589    506.10769    1420.3865    6998.4765   0.16549402    1.3891352    2.8887663   0.12131208   0.50449447    0.6243306    0.1389981 
   26700        26639    515.63706   -1202.9573    6971.1463   0.16614283    1.3235931    2.8514603  0.070836204   0.45397993   0.62946543   0.16931151 
   26750        26689    518.05098   -187.48875    6938.6602   0.16692069    1.3180593    2.8530791   0.12323403   0.42410115    0.6358689   0.13485522 
   26800        26739    535.07989    1021.2547    6907.8045   0.16766629    1.2491739    2.8346516   0.08665711   0.36322538    0.6404362   0.15885524 
   26850        26789    537.52137   -1031.5806     6875.847   0.16844557    1.2119428    2.8046547   0.08423453   0.36593323   0.64210786   0.11966717 
   26900        26839    537.40124    2163.4843    6844.3821   0.16921995    1.2046752    2.7970311  0.091101399   0.37361254   0.59638848   0.14357278 
   26950        26889      531.354    -1100.358    6813.8774   0.16997752    1.2154754    2.7899129   0.10171666   0.38904064   0.56054094   0.16417711 
   27000        26939    490.17384   -922.54178    6782.4427   0.17076532    1.3363576    2.7887756  0.072723503   0.43465523   0.65819758   0.17078132 
   27050        26989    521.36619    2677.3425    6748.1695   0.17163261    1.2267173    2.7715603  0.099321993   0.35688648   0.61304061   0.15746819 
   27100        27039    484.25807   -1921.6903    6715.0303   0.17247964    1.3420139    2.7769031  0.077741491   0.44300479   0.64710292    0.1741647 
   27150        27089    476.67408     786.2088    6679.7815    0.1733898    1.3539945    2.7664118  0.085979297   0.50141828   0.61965398   0.14694291 
   27200        27139    477.72148   -872.37838    6644.9885   0.17429766    1.3437981    2.7593189  0.081758505   0.46353687   0.63979969   0.15870303 
   27250        27189    494.62161    7.2329705    6609.0164   0.17524635    1.2858379    2.7514349  0.092768821   0.43104384   0.58816807   0.17385714 
   27300        27239    513.83131    425.22661    6572.5542   0.17621855    1.2076936    2.7302103  0.084052505   0.42862662   0.54482747   0.15018704 
   27350        27289    511.78853    683.91611    6536.6315   0.17718698    1.1957297    2.7121935  0.080440315   0.36358654   0.60842411   0.14327878 
   27400        27339    496.78248   -1484.4305    6502.9348   0.17810512    1.2401468    2.7121466  0.082949076   0.39378683   0.60773423   0.15567662 
   27450        27389    504.32484    885.44657    6472.5081   0.17894238    1.2106259    2.7049743  0.081608456   0.35643337   0.61299025   0.15959387 
   27500        27439     488.7477   -1153.7548    6441.4951    0.1798039    1.2305145    2.6787068  0.068547162   0.33739475   0.64890399   0.17566865 
   27550        27489    480.88902    1411.6672    6411.1775   0.18065417     1.258723    2.6836295  0.078138389   0.37626478   0.64759614   0.15672373 
   27600        27539    474.39357    68.137637    6381.4151   0.18149673     1.263103     2.668763  0.087578177   0.44280192   0.58909724   0.14362566 
   27650        27589    444.50367     79.73448    6355.0507   0.18224968    1.3526487    2.6697429  0.089144195   0.43205481   0.65421573   0.17723398 
   27700        27639     478.1637    771.13332    6328.3524   0.18301857    1.2531855    2.6700166  0.059905523   0.39163721   0.65324932   0.14839344 
   27750        27689    453.61946     1339.998    6301.2261   0.18380644    1.3057649    2.6498698  0.059467843   0.44211135   0.64772278   0.15646295 
   27800        27739    423.09421   -684.75525    6272.8842   0.18463691    1.3983538    2.6520103  0.079746085   0.50037143   0.69538702   0.12284922 
   27850        27789    444.85501    3524.2511    6245.2389   0.18545423    1.3092175    2.6273528  0.088136893   0.46569998   0.59804506   0.15733557 
   27900        27839    447.25695   -1534.5273    6219.6383   0.18621758    1.2958847    2.6211371  0.083521773   0.36783443   0.69965531   0.14487322 
   27950        27889    487.07427    1927.3619    6194.7557   0.18696556    1.1674091    2.6106428  0.086623589   0.32806178   0.62396455   0.12875915 
   28000        27939    448.81225    -40.09719    6171.9082   0.18765768     1.293734    2.6235949  0.096729444   0.34745916   0.67188283   0.17766259 
   28050        27989    461.49564   -450.69508    6148.8947   0.18836003    1.2460321    2.6134746   0.10650011   0.37284449   0.62055797    0.1461295 
   28100        28039    425.58493    1278.6239    6129.8279   0.18894592     1.339795    2.6008317  0.082135939   0.43637387   0.62331542   0.19796981 
   28150        28089    445.54329   -1545.8389    6110.4581   0.18954487    1.2802188    2.6003934  0.080553902   0.39566771   0.63502788   0.16896928 
   28200        28139    444.68176    969.55574     6087.931   0.19024624    1.2617222    2.5793441  0.096815602     0.384082   0.59467202   0.18615253 
   28250        28189    469.47958    -461.0671    6066.1879   0.19092814     1.206089    2.5971885  0.070392398   0.35400257   0.63282633   0.14886773 
   28300        28239    434.18981   -92.852717    6039.1732   0.19178221    1.3022566    2.5887901   0.15066376   0.32369294   0.64313461   0.18476528 
   28350        28289     450.7646    121.40423    6013.9704   0.19258591    1.2494411    2.5850869  0.094236102   0.38934882   0.62663938   0.13921681 
   28400        28339      447.404   -396.72753    5985.3789   0.19350587    1.2324083    2.5580964   0.10083867   0.37884725    0.5952336   0.15748876 
   28450        28389    474.32184    343.76397    5957.6611   0.19440615     1.151953    2.5574004  0.080403585   0.32955163   0.58228486   0.15971287 
   28500        28439    464.68685    1177.1941    5928.6542   0.19535732    1.1826789    2.5595772  0.086276678   0.35083336   0.59272931   0.15283951 
   28550        28489    439.89819   -2221.5628    5898.1119   0.19636894    1.2546667    2.5581146   0.10581061   0.43070167   0.56650257   0.15165187 
   28600        28539     448.8699    1497.8389    5869.9677   0.19731045    1.2272425    2.5572742  0.091522898   0.38656463   0.58772329   0.16143172 
   28650        28589     433.0147   -2675.2444    5841.2061   0.19828199    1.2578757    2.5409273  0.065455949   0.41966492   0.62982956   0.14292528 
   28700        28639    425.38966    1044.4443    5809.5713   0.19936169    1.2634106    2.5238687   0.08740304   0.41594376   0.60828105   0.15178278 
   28750        28689    404.09197    257.29393    5779.5194   0.20039832    1.3379408    2.5352924   0.06728434   0.44211974    0.6756008   0.15293592 
   28800        28739    403.20409   -1161.8416    5748.3546   0.20148478    1.3086131    2.5033339  0.079532204   0.42625654   0.65688926   0.14593513 
   28850        28789    408.07347    1921.1464    5720.9767   0.20244899    1.2656334    2.4747825  0.020057266   0.39702832   0.66944148    0.1791063 
   28900        28839    421.68235   -628.38362    5690.8487   0.20352078    1.2347088    2.4841819  0.060680123   0.36371687    0.6530132   0.15729856 
   28950        28889    451.21781    16.556138    5662.8057   0.20452864     1.117892    2.4548807  0.043635358    0.3346546   0.61025981   0.12934222 
   29000        28939    452.54207    1343.1649    5636.5822   0.20548019    1.1234235     2.464336  0.062850295   0.33165996   0.57488837   0.15402488 
   29050        28989    466.75219   -1441.6473    5609.8689   0.20645865    1.0723388    2.4553569  0.061056213   0.33273062   0.57034239   0.10820962 
   29100        29039     462.9965    1297.7426    5586.1493   0.20733531    1.0646756    2.4365653  0.047267222   0.34204252   0.52922393   0.14614191 
   29150        29089    450.68916   -539.82806    5564.1826   0.20815384    1.1105944    2.4460166  0.073435709   0.31194012   0.59673312   0.12848544 
   29200        29139    462.38798   -591.72439    5542.8449   0.20895515    1.0576102    2.4276968  0.060211573   0.32546466    0.5714664   0.10046758 
   29250        29189    399.28782   -193.88592     5522.651    0.2097192    1.2310027    2.4141193  0.077388081   0.38305747    0.6175179   0.15303928 
   29300        29239    411.48285   -915.45502    5502.2891    0.2104953    1.1936604    2.4129118  0.057287337   0.36144126   0.63319901   0.14173284 
   29350        29289    423.43428   -251.99249    5480.4057   0.21133581    1.1427265    2.3973907  0.060007099   0.38879395   0.55681867   0.13710681 
   29400        29339    424.58272    475.48346     5456.838   0.21224855    1.1461318    2.4041989   0.05800192   0.40021943   0.57614729   0.11176314 
   29450        29389     397.3328    634.58413    5429.8784   0.21330238    1.2106777    2.3880015  0.072647483   0.35858825   0.60130577   0.17813624 
   29500        29439    425.91902    1310.3742     5401.982   0.21440389    1.1160124     2.378039  0.048618011   0.37338413   0.58718952   0.10682069 
   29550        29489    417.71443   -1829.4778    5373.1044    0.2155562    1.1287566    2.3664725  0.056042247   0.32504811   0.60786827   0.13979796 
   29600        29539    428.17413    1206.3953    5344.6675   0.21670309    1.0946564    2.3633651  0.090884438   0.33113148   0.54062525   0.13201525 
   29650        29589    439.23436     -1613.63    5320.5249   0.21768641    1.0526919    2.3541728  0.037881326   0.26263933   0.62492479   0.12724649 
   29700        29639    422.22027    489.03452    5293.9763   0.21877808    1.1212611    2.3723281  0.090244147   0.32962062    0.5710209   0.13037544 
   29750        29689    435.31912    1136.2294    5269.1089    0.2198106    1.0612614    2.3511411  0.093174258   0.31312167   0.50185647   0.15310897 
   29800        29739     434.6375   -3794.6631    5243.0703   0.22090224    1.0457328    2.3335929  0.051891506   0.32610634   0.54946191   0.11827303 
   29850        29789    440.02434    2144.7196    5217.2916   0.22199372    1.0226849    2.3265066  0.056395636   0.31071969   0.49639583   0.15917379 
   29900        29839     402.6862   -1531.4167    5191.6625   0.22308961    1.1191114    2.3122976  0.047819711   0.34306699   0.59564757   0.13257709 
   29950        29889    379.65027    883.25621    5168.0809   0.22410755    1.1846473    2.3095765  0.049544319   0.39584637   0.59595366   0.14330294 
   30000        29939    405.37649   -447.99001    5146.5716   0.22504418    1.0795891    2.2807469 0.0047317252   0.34503526   0.58990461   0.13991755 
   30050        29989    403.19509   -1031.7638     5122.769   0.22608983    1.1041693    2.2988634  0.048545336   0.35946885   0.56675838   0.12939669 
   30100        30039    373.37869   -103.82535    5098.2891   0.22717542    1.1682559     2.274602  0.044177297   0.34692405   0.60042882   0.17672574 
   30150        30089    359.80629    2410.7978    5074.8908   0.22822284    1.2008641    2.2669943  0.051121567   0.33660669   0.65770563   0.15543023 
   30200        30139     384.8144   -1004.6858    5050.5243   0.22932391    1.1295124    2.2697433  0.050824922   0.34059462   0.59928596   0.13880688 
   30250        30189    396.48506    2163.8795    5028.6036   0.23032358    1.0760154    2.2508272  0.040873485   0.30702364   0.54794892   0.18016934 
   30300        30239    398.75404   -45.783663    5010.1887   0.23117013    1.0710318    2.2525668   0.06288757   0.35243778   0.52260511   0.13310137 
   30350        30289    387.69639     556.3059     4995.331    0.2318577    1.0887853    2.2375557  0.055049955   0.31444875   0.55019906   0.16908756 
   30400        30339     396.3251    1566.7427    4982.2376   0.23246703    1.0470304    2.2213683  0.022695435   0.31422723   0.54880814   0.16129963 
   30450        30389    396.17174    280.85053    4970.7823   0.23300276    1.0579203    2.2318038  0.017336747   0.29330652   0.58337329   0.16390375 
   30500        30439    387.46504    1214.3778    4956.7538    0.2336622    1.0710707    2.2191556  0.026088408   0.36971357   0.50200063   0.17326811 
   30550        30489    370.41497   -1319.1187    4940.8806   0.23441287    1.1271475    2.2247119  0.015213805    0.3533928   0.56762177    0.1909191 
   30600        30539    365.78233    -577.7246    4921.4181   0.23533989     1.127482    2.2113196  0.030209498   0.40503978   0.51182986   0.18040287 
   30650        30589     383.6659     453.4102    4901.0134   0.23631969    1.0852997    2.2221275  0.061452721   0.35982175   0.52589841   0.13812684 
   30700        30639    375.93161   -581.24034    4883.5315   0.23716566     1.090224    2.2041347  0.055917065   0.31639746   0.50479728   0.21311224 
   30750        30689    410.48606   -557.48638    4865.6703   0.23803626   0.99045916    2.2067569  0.046709367   0.31829494   0.46818376    0.1572711 
   30800        30739    385.60882   -1172.2969    4846.2442   0.23899043    1.0553659    2.1979507  0.061009987   0.31640684   0.51473378   0.16321526 
   30850        30789    371.67229    1502.4604    4826.6466    0.2399608      1.09033    2.1916199  0.054851989   0.30311888   0.56823969   0.16411941 
   30900        30839    368.07399    674.11836    4807.1386   0.24093459    1.0958191     2.186447  0.053669208   0.30970221   0.58000244   0.15244522 
   30950        30889    349.23015    177.55346    4789.5421   0.24181977     1.143737    2.1785294   0.05548827   0.33113702   0.57562505   0.18148665 
   31000        30939    375.10124    896.27425    4771.2503   0.24274685    1.0511006    2.1625508  0.038343692   0.29439836   0.56569411   0.15266447 
   31050        30989    366.06867     1091.251    4753.6175   0.24364728     1.062511    2.1471971  0.057650559   0.29359325   0.50495666   0.20631054 
   31100        31039    373.39144    63.229145    4737.1398   0.24449478    1.0247399    2.1311238   0.01036028    0.3040962   0.53394122   0.17634218 
   31150        31089    371.29764   -99.580765    4718.6363   0.24545354    1.0271648    2.1273446  0.037844086   0.29234416   0.52705838   0.16991817 
   31200        31139    362.39243   -1173.1264     4702.074   0.24631811    1.0363703    2.1101634  0.029967478   0.30726192   0.50887776   0.19026315 
   31250        31189    363.98718   -503.82942    4684.5049   0.24724192    1.0193605    2.0978789  0.018887224   0.31412847    0.5460802   0.14026457 
   31300        31239    351.00494    1068.5256    4667.3371   0.24815134    1.0617332    2.1017844  0.043938737   0.32360049   0.51807919    0.1761148 
   31350        31289     345.7698   -1950.7591    4650.3662   0.24905694    1.0600836    2.0846228  0.024889623   0.35832378   0.50750642   0.16936381 
   31400        31339    358.60258    959.01961    4632.4583   0.25001973    1.0351554    2.0977189   0.03774951    0.3582723   0.49706033   0.14207322 
   31450        31389     330.0083   -1926.3194    4614.7362   0.25097989    1.0865079    2.0643446  0.042961235   0.32224517   0.55468316    0.1666183 
   31500        31439    377.73577    1158.4159    4597.0652   0.25194464   0.94075827    2.0600147   0.02758544   0.31338136   0.45949341   0.14029806 
   31550        31489    343.74972   -404.60148    4578.3593   0.25297402    1.0289597    2.0475132  0.043878491    0.2884184   0.52887427   0.16778855 
   31600        31539    367.91213    45.762692    4558.0341   0.25410208   0.93705975    2.0272081  0.022794924    0.2781909   0.50704181   0.12903212 
   31650        31589     348.5879   -646.24068    4535.7533    0.2553503   0.99261947    2.0255088  0.034156556   0.26396128    0.5410343   0.15346733 
   31700        31639    359.39156    1238.2627    4513.5214   0.25660806   0.95961578    2.0245171  0.090211115   0.23512149   0.48490922   0.14937395 
   31750        31689    383.61968    1766.9917     4492.924   0.25778446   0.87334247    2.0100333  0.046711861   0.25748714   0.43509838   0.13404509 
   31800        31739    343.70007    556.29254    4474.5712   0.25884178   0.97614771    1.9945541  0.034999496   0.29320553   0.48423309   0.16370959 
   31850        31789    345.59371    178.00777    4457.4153   0.25983802   0.95969046    1.9837078 -0.00095144586   0.28880807   0.51637384      0.15546 
   31900        31839    324.90191   -1407.2117    4439.4466   0.26088972   0.98379451    1.9465007  0.017176487   0.32912141   0.49454463   0.14295198 
   31950        31889    330.57759   -1295.4189    4423.9822   0.26180168   0.97321665    1.9527402  0.014226185   0.33559683   0.49682359   0.12657003 
   32000        31939    328.70618   -1278.1545    4408.7343   0.26270714   0.95307413    1.9270526 -0.011420178   0.29460399   0.49965451    0.1702358 
   32050        31989    324.83167    837.46303    4391.0914   0.26376267   0.97241721    1.9349153  0.017167376   0.32216902   0.51399809   0.11908272 
   32100        32039    312.44852    397.33155    4372.9222   0.26485858    0.9939105    1.9197165  0.021017677   0.30250454    0.5084342   0.16195408 
   32150        32089    323.80011    920.38631    4353.4626   0.26604248   0.94161161    1.9010531  0.027102637   0.27537112   0.51073496    0.1284029 
   32200        32139    331.59561   -891.57221    4334.6148   0.26719928   0.90367082    1.8862109  0.014718263     0.248136   0.54037567   0.10044089 
   32250        32189    339.46976     2742.545    4316.0775   0.26834689   0.85410962    1.8599813 -0.0036098878   0.21890501   0.50176482   0.13704968 
   32300        32239    317.32416   -208.69462    4298.1986   0.26946311   0.92944297    1.8696958   0.01614802   0.25906273   0.52454634   0.12968588 
   32350        32289    335.73662    2459.3469     4280.519   0.27057606   0.85014333    1.8449535 -0.00025610153   0.23962245   0.50655394   0.10422304 
   32400        32339    287.88456   -918.35319    4263.0125   0.27168721   0.98142155    1.8344428 0.0049455064   0.32464878   0.50095744   0.15086982 
   32450        32389    308.51666    734.59615    4248.8812   0.27259081   0.92806619    1.8422218  0.019487136   0.27952084   0.50472943   0.12432878 
   32500        32439    293.28803    602.10907    4236.0761   0.27341482   0.97344297    1.8424751  0.015961205    0.2808867   0.54347634   0.13311872 
   32550        32489    298.69812    2013.8499    4224.0799    0.2741913   0.94353236    1.8285949  0.026691053   0.28877978   0.50895225   0.11910927 
   32600        32539    324.60615   -2905.0664    4213.4531   0.27488284   0.85111274    1.8129425 0.0037828567   0.27640362   0.46246607   0.10846019 
   32650        32589    310.49302     3915.903    4201.1601   0.27568718    0.8811153    1.8011269  0.036297685   0.27176537   0.44011989   0.13293235 
   32700        32639     300.5395   -2512.1649    4189.4542   0.27645749   0.89239357    1.7829123 -0.00015454598   0.28033757   0.50343851   0.10877203 
   32750        32689    314.78471    1880.7095     4174.976    0.2774162   0.84792577     1.780654  0.022447669   0.21715657    0.4959564   0.11236512 
   32800        32739    294.32059   -548.73709    4160.0694   0.27841025   0.89428579    1.7663774  0.003187254   0.27517771   0.49128855   0.12463227 
   32850        32789     319.0624   -2810.2575    4143.7937   0.27950377   0.78406393    1.7294672 -0.027327126   0.24373959   0.46535912   0.10229235 
   32900        32839    307.05716    2128.2102     4126.355     0.280685   0.80165325    1.7114842 -0.025474418   0.29579131    0.4275483   0.10378805 
   32950        32889    300.27197    -368.4524    4110.8841   0.28174133   0.80908595     1.698812 -0.019327195   0.25449246   0.45809345   0.11582724 
   33000        32939    329.26911    164.59283    4095.4866   0.28280057   0.72809674    1.7037432 -0.025903475   0.23608511   0.42304544  0.094869675 
   33050        32989    278.06667   -162.75155    4079.7014   0.28389479    0.8610593    1.6849895 -0.010557168   0.26503104   0.48032448   0.12626096 
   33100        33039    279.96592    1447.1483    4064.9038   0.28492826   0.85819154    1.6877494 0.0043308244    0.2758217   0.48464747  0.093391544 
   33150        33089    292.06047    1820.3352    4051.3397   0.28588222   0.80974285    1.6751376 0.0068701293    0.2241149   0.46392197   0.11483586 
   33200        33139    310.80527   -891.86538    4041.5248   0.28657648   0.73533008    1.6562669 -0.021129329   0.21738148    0.4175389   0.12153902 
   33250        33189    321.42626   -1212.2094    4030.5126   0.28735947   0.69506306    1.6474706 -0.014527879    0.2245697   0.37776404   0.10725719 
   33300        33239     325.9369    693.58315    4019.8314   0.28812302   0.68090854    1.6466815 -0.012403107   0.19055465   0.39038804   0.11236897 
   33350        33289    301.16533   -2190.4128    4008.4601   0.28894037   0.73603925    1.6284123 -0.016784808   0.22028066   0.43265506  0.099888338 
   33400        33339    298.34592    886.15933    3996.2163   0.28982565   0.74561415    1.6296331 0.0014292323   0.23510613   0.40104984   0.10802894 
   33450        33389    283.24508   -668.45325    3983.9692    0.2907166   0.77742396    1.6166981 0.0064032156   0.27322377   0.38934412   0.10845285 
   33500        33439    286.15485    -446.5779    3971.0937   0.29165919    0.7702198    1.6181158 -0.0056916246   0.25109189   0.42837374  0.096445788 
   33550        33489    290.97986   -46.918586     3957.747   0.29264275   0.73107937    1.5932722 -0.018240612   0.22884101   0.40343061   0.11704837 
   33600        33539    274.47646   -475.72715    3943.3618    0.2937103   0.78197551    1.5952677 -0.0046149562    0.2664704   0.40746735   0.11265272 
   33650        33589    280.34998    1617.9716    3928.2334   0.29484143    0.7781264    1.6088222  0.012931267   0.23423378   0.38150677   0.14945458 
   33700        33639    298.93304   -3057.5974    3913.5527   0.29594745   0.69821701    1.5839757 -0.021941011   0.24089751   0.36685632   0.11240418 
   33750        33689    275.45845     884.3954    3896.9172   0.29721083   0.76046317    1.5766651 -0.0012319967   0.23190414   0.40389818   0.12589285 
   33800        33739    300.06504    -448.7549    3881.6024   0.29838346   0.67235078    1.5614636 -0.014213662   0.20589022   0.38271023  0.097963991 
   33850        33789    276.54144   -983.14592    3865.8775   0.29959717   0.72269906    1.5421099 -0.017411475   0.23174355   0.41258821  0.095778773 
   33900        33839    279.81533    1812.7982    3851.1675   0.30074152   0.70933731    1.5384489 -0.010249721    0.2318088   0.38283111   0.10494712 
   33950        33889    280.99724    137.73134    3837.6072    0.3018042   0.70090687    1.5335206   -0.0120281   0.21159897   0.37436303   0.12697297 
   34000        33939     284.2247   -2360.9074    3823.7702   0.30289633   0.69764377    1.5398206 -0.013540551   0.24564778    0.3644172   0.10111933 
   34050        33989     253.8234    1538.8744    3809.0611     0.304066   0.75557883    1.5076746 -0.0088204964   0.24145044   0.40587162   0.11707726 
   34061        34000    257.03833    1886.0748    3805.7985   0.30432666    0.7513745    1.5129963  0.010364671   0.27403673   0.36240316   0.10456995 
Loop time of 5.40304 on 8 procs for 20000 steps with 168 atoms

Performance: 319.820 ns/day, 0.075 hours/ns, 3701.621 timesteps/s
99.0% CPU use with 8 MPI tasks x no OpenMP threads

MPI task timing breakdown:
Section |  min time  |  avg time  |  max time  |%varavg| %total
---------------------------------------------------------------
Pair    | 0.64       | 0.893      | 1.0868     |  16.3 | 16.53
Bond    | 0.44148    | 0.51005    | 0.56212    |   5.6 |  9.44
Kspace  | 2.5581     | 2.8055     | 3.0654     |  10.7 | 51.93
Neigh   | 0.14726    | 0.14883    | 0.1499     |   0.2 |  2.75
Comm    | 0.67765    | 0.70933    | 0.73065    |   1.9 | 13.13
Output  | 0.033896   | 0.034805   | 0.040961   |   1.2 |  0.64
Modify  | 0.24357    | 0.25453    | 0.26984    |   1.7 |  4.71
Other   |            | 0.04694    |            |       |  0.87

Nlocal:        21.0000 ave          39 max           8 min
Histogram: 1 1 1 1 2 1 0 0 0 1
Nghost:        1688.25 ave        1747 max        1629 min
Histogram: 1 0 1 1 1 1 1 0 1 1
Neighs:        4164.25 ave        7381 max        1639 min
Histogram: 1 1 1 0 3 0 0 1 0 1

Total # of neighbors = 33314
Ave neighs/atom = 198.29762
Ave special neighs/atom = 9.1428571
Neighbor list builds = 861
Dangerous builds = 19

# At the very end of the previous simulation, the temperature dropped below
# the boiling point.  Run the simulation for longer at these conditions to
# give it a chance for the vapor -> liquid transition to complete.
# We will also slowly decrease the pressure to 1 bar.

unfix fxnpt
fix fxnpt all npt temp 260.0 260.0 100.0 iso 500.0 1.0 1000.0 drag 2.0

timestep        1.0
run             200000
PPPM initialization ...
  using 12-bit tables for long-range coulomb (../kspace.cpp:340)
  G vector (1/distance) = 0.20870784
  grid = 5 5 5
  stencil order = 5
  estimated absolute RMS force accuracy = 0.0028267978
  estimated relative force accuracy = 8.5128177e-06
  using double precision KISS FFT
  3d grid and FFT values/proc = 512 30
Per MPI rank memory allocation (min/avg/max) = 13.76 | 13.78 | 13.79 Mbytes
Step Time Temp Press Volume Density PotEng TotEng E_pair E_bond E_angle E_dihed 
   34061        34000    257.03833    1925.4582    3805.7985   0.30432666    0.7655883    1.5272101  0.024578466   0.27403673   0.36240316   0.10456995 
   34100        34039    248.37244   -795.48816    3807.0503    0.3042266   0.78870437    1.5246486 -0.016997437   0.26046924   0.43460785   0.11062472 
   34150        34089    276.40228    1624.9656    3796.1425   0.30510077   0.69432522    1.5133237 -0.012475414   0.23730798   0.38375208   0.08574057 
   34200        34139     263.2427   -1633.9367    3775.2921   0.30678579   0.71880087    1.4988067 -0.019330612   0.25900511   0.36942334   0.10970303 
   34250        34189    285.57649   -243.03619    3742.3371   0.30948734   0.64391409    1.4900964 -0.015022917   0.23161453   0.34727813  0.080044343 
   34300        34239    254.29856   -1180.0407    3701.7515   0.31288053   0.72902669    1.4825304 -0.011627889   0.23669412   0.42015731  0.083803146 
   34350        34289    265.67469    258.92176     3658.822    0.3165516   0.68624794    1.4734599 -0.0045145025   0.21363136   0.39250304  0.084628051 
   34400        34339    269.18874   -786.01723     3615.246   0.32036712   0.67056392    1.4681882 -0.0075315513     0.202864   0.38637574  0.088855741 
   34450        34389    272.35884    1354.8551    3576.7662   0.32381372   0.65630068    1.4633182 -0.0091127502   0.20258716   0.37924233  0.083583944 
   34500        34439    265.21076    -775.4645    3538.7132    0.3272958   0.67461708    1.4604544 0.0019407007   0.19001959   0.38810019  0.094556594 
   34550        34489    265.86032    1079.1676    3505.3086   0.33041484   0.67014058    1.4579026 -0.0016696195    0.1937772   0.38202141  0.096011591 
   34600        34539    263.05588    1121.6325    3474.8306   0.33331293   0.67691015    1.4563624 -0.029784634   0.18009142   0.43320716  0.093396206 
   34650        34589    250.53204    1211.6652    3437.2346   0.33695867   0.70857868    1.4509219 -0.0068126587   0.21500407   0.40846519  0.091922075 
   34700        34639    256.45266   -374.10763    3402.4027   0.34040825   0.68558037    1.4454668 -0.044461413   0.23029556   0.40815554  0.091590684 
   34750        34689    258.63283   -961.16285    3361.8878   0.34451059   0.67559369    1.4419401 -0.0054443123   0.21066518   0.38213027  0.088242561 
   34800        34739    245.11817    2406.0206    3332.0821   0.34759226   0.71556427    1.4418659 -0.012798156   0.24600997   0.37021062   0.11214184 
   34850        34789    256.12915      102.337    3310.7903   0.34982765   0.68506557    1.4439934 -0.039655954   0.23103833   0.41726977  0.076413418 
   34900        34839    251.10137     594.6381    3286.1001   0.35245608   0.69430861    1.4383388 -0.023946884   0.22100932   0.40817829  0.089067883 
   34950        34889    272.54664    1260.2018    3263.2587   0.35492312   0.62115458    1.4287286 -0.035190779   0.20497504   0.36280932  0.088560988 
   35000        34939    260.36294   -380.14484    3237.9402   0.35769839   0.65253453    1.4240074   -0.0251241   0.19960657   0.39784332  0.080208735 
   35050        34989    259.39749    235.72484    3214.0192   0.36036063    0.6521272    1.4207394 -0.040416379   0.21918796   0.37394702  0.099408596 
   35100        35039    263.28012    555.18056    3188.2523     0.363273   0.63979281    1.4199095 -0.025468793   0.19225932    0.3937485  0.079253786 
   35150        35089    263.25071   -1477.1341    3160.7997   0.36642815   0.63605656    1.4160861 -0.034151477   0.19333192   0.38175098  0.095125136 
   35200        35139     259.0204    338.33227    3131.9683   0.36980131   0.64566933    1.4131642 -0.036617151   0.19279259   0.39409054  0.095403346 
   35250        35189    246.58006   -97.871274    3098.9364   0.37374306   0.68412502    1.4147583 -0.018853301   0.20899408   0.38917426   0.10480999 
   35300        35239    262.68196   -178.22518    3070.6932   0.37718062   0.63892132    1.4172656 -0.028765717    0.2139259   0.34305988   0.11070127 
   35350        35289     281.4478    2444.7021    3045.2449   0.38033262   0.58776099    1.4217097 -0.045158022   0.18362675   0.35770202  0.091590249 
   35400        35339    260.59369   -639.62848    3021.9822   0.38326036   0.64980189    1.4219585  -0.02205404   0.19238825   0.38084699  0.098620683 
   35450        35389    289.46382    458.44228    3004.9109   0.38543771    0.5635256    1.4212263 -0.061521796   0.19540202   0.34591238     0.083733 
   35500        35439    253.06535   -2372.9163    2984.1072   0.38812478   0.66893394    1.4187836 -0.040431789   0.22141376   0.37747128   0.11048069 
   35550        35489    266.92183   -362.73859    2964.6115   0.39067715   0.62381572     1.414723 -0.055746414   0.20910869   0.38276937  0.087684083 
   35600        35539    257.67446   -1005.0966    2940.2409   0.39391533   0.64533266    1.4088394 -0.042246348   0.20593816   0.38285563  0.098785214 
   35650        35589    282.23222    1778.4154    2917.8494   0.39693823   0.57153067    1.4078037 -0.048330139   0.18927098   0.34313905  0.087450783 
   35700        35639    267.28342   -829.09619     2896.188   0.39990704   0.61401142    1.4059901 -0.034289138   0.23006399   0.32739636  0.090840204 
   35750        35689    262.39839   -86.485466    2876.8144   0.40260018   0.62453199     1.402036 -0.051036379   0.21194453   0.37583882   0.08778502 
   35800        35739    257.19578   -1654.4904    2854.7783   0.40570785   0.64024845    1.4023368 -0.043979312   0.19866327   0.38055736   0.10500714 
   35850        35789    256.16568    1441.6189    2832.1519    0.4089491   0.64483742    1.4038735 -0.052781142   0.22304584   0.39793494  0.076637779 
   35900        35839    273.65664   -1829.2607    2808.7113   0.41236205   0.58723448    1.3980975  -0.06232466   0.23193549    0.3134452   0.10417845 
   35950        35889    276.64288     1034.164    2782.8619   0.41619239   0.57537802    1.3950894 -0.043836643   0.21430791   0.33084729   0.07405947 
   36000        35939    263.02943   -1362.1445     2758.675    0.4198414   0.61581364    1.3951875 -0.060508865   0.19572176   0.36954059   0.11106015 
   36050        35989    272.76567    1835.9224    2734.4832   0.42355571   0.58920101     1.397424  -0.06344937   0.20880153   0.33861797   0.10523088 
   36100        36039    264.48485    1008.6485    2712.4546   0.42699552   0.61460194    1.3982883 -0.050910243   0.21870826   0.36082788  0.085976041 
   36150        36089     282.0691    -2055.518    2695.3977   0.42969761    0.5587441    1.3945338 -0.064605035   0.17086347   0.36209343  0.090392231 
   36200        36139    275.68833    1877.7222    2677.0256   0.43264658   0.57459414    1.3914772 -0.078169385   0.17322924   0.38230232   0.09723196 
   36250        36189    264.92842   -2503.9652    2658.5397   0.43565494   0.60313498    1.3881357 -0.058465858   0.17549474   0.38365902   0.10244708 
   36300        36239    281.69377    3968.7645    2640.4053   0.43864703   0.55597095    1.3906485 -0.079914466   0.18821153   0.35475583  0.092918062 
   36350        36289    282.83399   -3668.7033    2619.0163   0.44222938   0.55091755    1.3889737 -0.078612044   0.19598469     0.325632    0.1079129 
   36400        36339    272.68878   -1650.9626    2595.7773   0.44618849     0.576944    1.3849392 -0.082646981   0.19327242   0.37110868  0.095209878 
   36450        36389    258.25615    2290.9353     2569.951    0.4506724   0.61811733    1.3833476 -0.064158241   0.22342648   0.35918229  0.099666807 
   36500        36439    225.20868   -2207.9223    2548.7401   0.45442294   0.71482576    1.3821342 -0.073904473   0.22163713   0.46856071   0.09853239 
   36550        36489    264.41981     834.8395    2530.3184   0.45773132   0.59513806    1.3786317 -0.097709634   0.22143312   0.38120942  0.090205147 
   36600        36539    266.59308   -3866.9809    2511.4518   0.46116991   0.58173827    1.3716715 -0.089238288    0.2178417   0.35877349  0.094361365 
   36650        36589    262.54248    396.90869    2491.4904   0.46486472   0.58804618    1.3659772  -0.10361766     0.201941   0.38728338   0.10243948 
   36700        36639    254.73099    1550.2815    2470.5074   0.46881299   0.60824509    1.3630301 -0.098007842   0.18924014   0.42461505   0.09239775 
   36750        36689     255.8586    717.87067    2447.5281   0.47321458   0.59485198    1.3529782  -0.10315905   0.21645712   0.37968021    0.1018737 
   36800        36739    275.67281    135.22713      2424.98   0.47761465   0.52967761    1.3465146  -0.10225858   0.20594329   0.34954274  0.076450159 
   36850        36789    268.08742    155.31526    2403.3864   0.48190585   0.54635133    1.3407124 -0.090115543   0.20065834   0.35716552  0.078643022 
   36900        36839     247.3074    3363.2611     2387.976   0.48501576   0.60924824    1.3420367 -0.082948819   0.20303155   0.37875167   0.11041384 
   36950        36889    253.08953    310.64514    2377.2487   0.48720438   0.59822188    1.3481432 -0.084145306   0.21703551   0.38703495  0.078296728 
   37000        36939    251.04502   -1821.3255    2369.5269   0.48879207   0.60190724    1.3457705 -0.099221952   0.20959736   0.39858453  0.092947294 
   37050        36989    268.80938    263.37104    2362.8829   0.49016646   0.54711793    1.3436182  -0.11121697    0.1833961   0.37626103  0.098677774 
   37100        37039    233.49917   -3044.5206    2356.1935   0.49155808   0.64883561    1.3407093  -0.11774937    0.2259331   0.44961723  0.091034648 
   37150        37089    254.96375   -1557.4145     2344.581   0.49399273   0.58192746    1.3374022 -0.099135308   0.21000144   0.37836994  0.092691386 
   37200        37139    255.35783    2297.2859    2330.8889   0.49689453    0.5794893    1.3361317  -0.11301197   0.20280817   0.39607719    0.0936159 
   37250        37189    259.79246   -742.43623    2314.9685   0.50031177   0.56166581    1.3314483  -0.11423504   0.21027183   0.37511239  0.090516622 
   37300        37239    289.86581    4744.8312    2296.3648   0.50436498   0.47063793    1.3295298  -0.12424653   0.18388187   0.31363484  0.097367749 
   37350        37289    258.43866   -3606.8617     2276.725   0.50871581   0.56212191     1.327893  -0.12217487   0.22934289   0.34482568   0.11012822 
   37400        37339    271.55185   -2155.8644    2254.9101   0.51363732   0.51815196    1.3227783  -0.14230016   0.19792268   0.36732047  0.095208964 
   37450        37389    266.88251    3656.0817    2232.5944   0.51877134    0.5295329    1.3203237  -0.11423096   0.18891568   0.35308443   0.10176374 
   37500        37439    268.52119    -2022.007     2218.427   0.52208432   0.52615221    1.3217985  -0.13060914   0.20159325    0.3562423  0.098925801 
   37550        37489    274.19996   -243.61949    2206.7438   0.52484842   0.50741402    1.3198869  -0.11126643   0.19359241   0.30180055   0.12328749 
   37600        37539    267.71331   -1493.9825    2199.9511   0.52646897   0.52897716    1.3222297  -0.12492512    0.2029082   0.34395558   0.10703851 
   37650        37589    255.52415   -2978.5289     2193.992    0.5278989   0.56350491    1.3206401   -0.1489631   0.20550138   0.38485934   0.12210729 
   37700        37639    261.77812    1279.9858    2182.6612   0.53063937   0.54302477    1.3186909  -0.11541384   0.21085728   0.38017718   0.06740415 
   37750        37689    254.39123   -49.849748    2176.1074    0.5322375    0.5618642    1.3156425  -0.15105424   0.22076211   0.37607385   0.11608247 
   37800        37739    269.54205    1505.7054    2166.6871   0.53455157    0.5173995    1.3160707  -0.11969332   0.20193481   0.35081004   0.08434798 
   37850        37789    276.13367    1907.8748    2158.5517   0.53656625   0.49045242     1.308655  -0.16379967   0.21770351   0.35062577  0.085922808 
   37900        37839    292.52538   -180.60048    2147.3898   0.53935526   0.43626738    1.3030397  -0.15316541   0.18179021   0.32575068  0.081891897 
   37950        37889    270.65994    357.54085    2132.5851   0.54309953   0.49639462    1.2983782  -0.15981773   0.21616881   0.33340117   0.10664237 
   38000        37939    267.92788    -3678.332    2118.2474   0.54677559   0.50061027    1.2944986  -0.16319793    0.1969675    0.3679107  0.098930001 
   38050        37989    276.71369    1503.6622    2102.0321   0.55099347   0.47130106    1.2912223   -0.1803326   0.18669095   0.36879261   0.09615011 
   38100        38039    261.39389   -1832.3687    2087.2261   0.55490203   0.51295816    1.2874858  -0.14586085   0.19284225   0.36872497  0.097251792 
   38150        38089    284.45042    -370.0182    2076.9065   0.55765916    0.4441153     1.286961  -0.18340852   0.18153977   0.37098867  0.074995383 
   38200        38139    262.43845    -1501.894    2064.7029   0.56095528   0.49951174    1.2771345  -0.15253403    0.1710188   0.37917605   0.10185092 
   38250        38189    284.77503     3901.323    2055.8712   0.56336505   0.42946241    1.2732699  -0.15251475    0.1657783   0.31804609  0.098152764 
   38300        38239    266.96332   -1480.3675    2053.4727   0.56402307   0.48522638    1.2762566  -0.15595092   0.19514956   0.36491743  0.081110305 
   38350        38289    273.65639     3614.556    2053.9417   0.56389427   0.46241046    1.2732727   -0.1504538   0.19079639   0.33267458   0.08939328 
   38400        38339    263.25346   -3218.9029    2057.4561   0.56293106   0.48886075    1.2688984  -0.16858644   0.19933001   0.37686819  0.081248995 
   38450        38389    260.04928    3457.0961     2056.455   0.56320512   0.49750571    1.2680492  -0.12429453   0.19641742   0.29956619   0.12581662 
   38500        38439    279.18334    806.88433    2055.6066   0.56343756   0.44177826    1.2690172  -0.17795399   0.19363888    0.3248372   0.10125618 
   38550        38489     264.1023    1741.6808    2051.8229   0.56447658   0.48906788    1.2716207  -0.14084783   0.19101816   0.33877923   0.10011831 
   38600        38539    262.36421    3357.9057    2050.1439   0.56493886   0.49704858    1.2744513  -0.13154406   0.16838137   0.35377131   0.10643996 
   38650        38589    254.53231   -1730.8887    2054.1634   0.56383341   0.52949595    1.2836923  -0.14070294   0.18733933    0.3699409   0.11291866 
   38700        38639     264.9967    409.54462    2056.4075   0.56321813   0.50372963    1.2889326  -0.16275347   0.18428692   0.35781988   0.12437631 
   38750        38689    249.21331    2314.7944    2054.6573   0.56369787   0.55381356    1.2922493  -0.12360386   0.22214139   0.34422335   0.11105268 
   38800        38739     256.5064   -886.78255    2054.7954   0.56366001    0.5346024    1.2946481  -0.15242663    0.2252555   0.36379869  0.097974841 
   38850        38789    241.52512   -2533.3368     2056.385   0.56322428   0.58037352    1.2960287  -0.13057865   0.23837095   0.35043763   0.12214358 
   38900        38839     267.5988   -950.10563    2058.8038   0.56256257    0.5042995    1.2972127  -0.16607415   0.21875238   0.34433066   0.10729061 
   38950        38889    268.50773   -2683.7644    2058.9293   0.56252829   0.49613317    1.2917396  -0.17361974   0.20443762   0.36910004  0.096215256 
   39000        38939    262.47266    6128.2188    2055.9308    0.5633487   0.50779601    1.2855201  -0.16136095   0.23000364   0.32971378   0.10943954 
   39050        38989     258.2229   -2070.9618    2053.5561   0.56400017     0.520038    1.2851698  -0.14665172   0.20264357   0.34691756   0.11712858 
   39100        39039    273.39489    652.16613    2049.4822   0.56512126   0.47817263    1.2882601  -0.18924139   0.20506912      0.36571  0.096634912 
   39150        39089     259.1401    3723.5854     2039.994    0.5677497   0.51546112    1.2833106  -0.14317136   0.20763279   0.34682898   0.10417071 
   39200        39139    259.46125   -1616.0722    2029.6884    0.5706324    0.5099836    1.2787847   -0.1451043   0.20404649   0.36280964  0.088231765 
   39250        39189    259.31982    1904.9406    2020.2208   0.57330662   0.50910683    1.2774889  -0.15587055   0.21896267   0.34408427   0.10193044 
   39300        39239    270.59032   -1901.0768    2009.8959   0.57625171    0.4761259    1.2779032  -0.16760676   0.19907441   0.34430481   0.10035344 
   39350        39289    254.15231    1564.6231    1999.8496   0.57914654   0.52788756    1.2809579   -0.1669216   0.23482125   0.35580062   0.10418729 
   39400        39339    235.95631   -1822.7315    1992.6652   0.58123461   0.58297509    1.2821295  -0.17521376   0.26971971   0.38253184    0.1059373 
   39450        39389    256.67587    1081.4772    1986.6672   0.58298942   0.52207948    1.2826273  -0.18022134   0.20667872    0.3571147    0.1385074 
   39500        39439    236.61169   -6112.6195    1979.5219   0.58509379   0.58060428    1.2817006  -0.16978769   0.21330607   0.41768911    0.1193968 
   39550        39489    262.53442     10257.37    1971.6271   0.58743663   0.50567238    1.2835795  -0.17340003   0.21894576    0.3560977   0.10402895 
   39600        39539    244.64275   -7602.2585     1963.738   0.58979659   0.56042334    1.2853162  -0.15815136   0.24350043   0.38128506  0.093789215 
   39650        39589    268.24255    8041.7793    1956.7633   0.59189887   0.48475177    1.2795725  -0.19643839   0.20378633   0.37781399  0.099589847 
   39700        39639    266.83695   -4813.2212    1948.6175   0.59437319   0.48458955    1.2752453  -0.17350526   0.18863794   0.38117968  0.088277195 
   39750        39689    252.97895    6365.4576    1944.6051   0.59559958   0.52078048    1.2703741  -0.15854071   0.19224679   0.38145454   0.10561986 
   39800        39739    260.37477    3191.9721    1947.5414    0.5947016   0.49975416    1.2712621  -0.17695309   0.20264247   0.36643747   0.10762731 
   39850        39789    252.47263   -2527.1283    1953.1469   0.59299481   0.52710895    1.2752023  -0.17495887    0.2095836   0.37713958   0.11534464 
   39900        39839    270.91131   -160.08486    1959.5481   0.59105769   0.47419674    1.2769252  -0.18888336   0.18807307   0.39511412  0.079892915 
   39950        39889    275.37758   -341.24724     1963.855   0.58976146   0.45474619    1.2707084  -0.19343915   0.18217531   0.36509937   0.10091066 
   40000        39939    275.13815   -366.82121    1962.4511   0.59018335   0.45425387    1.2695067  -0.18284527   0.18409726   0.34862525   0.10437664 
   40050        39989    264.10475    4470.3782    1957.8821   0.59156063   0.48642301    1.2689831  -0.18622145   0.22850029     0.360072  0.084072169 
   40100        40039    249.18461   -3690.9146    1951.7021   0.59343379   0.53201078    1.2703615  -0.18005842   0.23075181   0.37715438     0.104163 
   40150        40089    251.58313   -768.15389    1945.8362   0.59522275   0.52557051    1.2710282  -0.17957032   0.23495172   0.37591074  0.094278365 
   40200        40139    262.13807   -395.17918    1937.6786   0.59772864   0.49199837    1.2687311  -0.19958474   0.21104666   0.37714312   0.10339332 
   40250        40189    246.44071    859.34999    1928.3373   0.60062416   0.54057595    1.2707963  -0.17790186   0.24591037   0.37358885  0.098978589 
   40300        40239    249.85436    6435.4016    1923.8152   0.60203599   0.53427367    1.2746089  -0.16690744   0.24058157   0.37199384  0.088605695 
   40350        40289    258.01761   -3341.7326     1924.824   0.60172044   0.51131603    1.2758395  -0.19230365   0.21503083   0.40183631  0.086752546 
   40400        40339    265.30626    4729.1035    1926.3739   0.60123633   0.48579357    1.2719138  -0.17938699   0.20713872   0.35585499   0.10218684 
   40450        40389    256.84966   -3427.8904     1930.085   0.60008029   0.51046976    1.2715325  -0.18784829    0.2021342    0.4012577   0.09492615 
   40500        40439    269.61346    7336.4923    1930.7603   0.59987041   0.47247802    1.2713608  -0.19027458   0.24445189   0.32340861  0.094892106 
   40550        40489    254.53516   -1610.2385    1933.6429   0.59897616   0.51297406    1.2671788  -0.17823971   0.24172707   0.35964332  0.089843378 
   40600        40539    262.70393   -2362.2453    1936.1906   0.59818798   0.49033165     1.268741  -0.15604128   0.24436346   0.31712329  0.084886192 
   40650        40589    263.14306    2516.9636    1943.4318   0.59595916   0.48860632    1.2683169  -0.17708714    0.2240482   0.35235283  0.089292428 
   40700        40639    255.45324   -4343.9602    1951.0957   0.59361824   0.51322342    1.2701485  -0.19754945   0.24330771   0.34677968   0.12068549 
   40750        40689    263.58082    7319.8715    1954.6964   0.59252475   0.49070386    1.2717115   -0.1798741   0.22923721   0.35010979  0.091230954 
   40800        40739     254.6338   -2843.3253    1960.6042    0.5907393   0.51511083    1.2696079  -0.16253185   0.23789762   0.36291158  0.076833491 
   40850        40789    286.23038   -1753.1407    1968.8948   0.58825182   0.41940672    1.2675266   -0.1990536   0.21282064   0.32137627  0.084263419 
   40900        40839    271.38258   -997.26001      1974.54   0.58657001   0.46245998    1.2665848  -0.19370861   0.23544153   0.32532488  0.095402181 
   40950        40889    267.60642    553.24129    1977.4488   0.58570719    0.4665379    1.2594737   -0.1826092   0.20730634    0.3493132  0.092527569 
   41000        40939    268.61957    2359.3098    1979.2784   0.58516576   0.46472986    1.2606677  -0.17481448   0.22264508    0.3315078  0.085391451 
   41050        40989    252.87087    -3152.595     1983.257   0.58399188   0.51156149    1.2608349  -0.19575605   0.23446433   0.37563907  0.097214136 
   41100        41039     274.2778   -664.37191    1981.8138   0.58441715    0.4487958    1.2614993  -0.16524265   0.21179515   0.29718872   0.10505458 
   41150        41089    252.82603    4117.9235    1980.5551   0.58478855   0.51754899    1.2666895  -0.15686345   0.24020278   0.34476899  0.089440679 
   41200        41139    263.53132   -1329.9326    1980.2305   0.58488442   0.48750354    1.2683645  -0.18333207   0.21063956   0.34932824    0.1108678 
   41250        41189     264.7111    3694.3363    1979.4949   0.58510178   0.48505627     1.269413  -0.17917692   0.20490827   0.36620159  0.093123325 
   41300        41239    251.66131   -2891.8127    1980.0156   0.58494791   0.52457596    1.2702653  -0.18316598   0.21495047   0.37597858   0.11681288 
   41350        41289    271.22171   -2433.1253     1978.582   0.58537173    0.4679873    1.2716354  -0.19176866   0.23601247    0.3366507  0.087092793 
   41400        41339     271.7839    4105.5906     1975.775   0.58620337   0.46744428    1.2727582  -0.18283726    0.2157557   0.33601517  0.098510666 
   41450        41389    250.28335   -4233.6525    1970.3394   0.58782055   0.53135484    1.2729612  -0.19276843    0.2529702   0.37546433  0.095688745 
   41500        41439    238.94168    8347.3586    1960.6719   0.59071891   0.56100055    1.2690008  -0.18500709    0.2611575   0.40452957  0.080320568 
   41550        41489     254.4108   -6945.0924    1950.8834   0.59368283   0.50750541    1.2613417  -0.19634037   0.23187354   0.37977569  0.092196545 
   41600        41539    261.89741    6350.0253    1939.5744    0.5971444   0.48393769    1.2599573  -0.17702817   0.22267961   0.36317725  0.075108988 
   41650        41589    251.79252    1629.7736    1931.3174   0.59969738   0.51452533    1.2606035  -0.17970902   0.25124258    0.3575076  0.085484172 
   41700        41639    257.27466    2710.2719    1928.1244   0.60069048   0.49722714    1.2595492  -0.18491277   0.24330421   0.36249184  0.076343862 
   41750        41689    263.97812    2538.9989    1927.2355   0.60096754   0.47669684    1.2588817  -0.17727057   0.20499722   0.35993404  0.089036152 
   41800        41739    269.05046   -2704.7532    1931.1253   0.59975704   0.46371764    1.2609322  -0.19436873   0.24365722   0.33325036   0.08117879 
   41850        41789    261.49523   -246.67613    1934.4655   0.59872143   0.48924408     1.264072  -0.16568963   0.24969122   0.32548323  0.079759258 
   41900        41839    266.04172    1737.2138    1940.7544   0.59678132    0.4774137    1.2657132  -0.19701443   0.23544669   0.33735698   0.10162446 
   41950        41889    264.95584   -2094.6744    1946.1773   0.59511844   0.48245972    1.2675417  -0.18014366   0.22976478   0.33855537  0.094283228 
   42000        41939    276.17828    2205.7675    1949.6481     0.594059   0.44829715     1.266632  -0.19377873   0.21500247   0.34158052  0.085492897 
   42050        41989    264.24352    -3954.547    1948.4179   0.59443408   0.48249526    1.2654666  -0.18261483   0.26813273   0.30327729  0.093700064 
   42100        42039    264.77083   -316.06273     1945.004   0.59547742   0.47957835    1.2641121  -0.18882502   0.22776207   0.36719756  0.073443746 
   42150        42089    277.80824    3757.7886    1940.8803    0.5967426   0.43941142    1.2625759  -0.16903833   0.22341255   0.30739163   0.07764557 
   42200        42139    246.79774   -2926.6236    1939.2248   0.59725203   0.53487105    1.2661493  -0.19103517   0.25174768   0.38000262  0.094155919 
   42250        42189    267.03816    3838.8013     1935.988   0.59825058   0.47933336    1.2705854  -0.16427867   0.22429302   0.31554676   0.10377225 
   42300        42239    277.99161    873.76056    1933.9718   0.59887428   0.44857717     1.272285  -0.18675471   0.21281511   0.34992517  0.072591606 
   42350        42289    268.99736   -1625.3408    1932.4576   0.59934354   0.47383299    1.2708902  -0.19669368   0.21938178   0.37095637  0.080188509 
   42400        42339    268.91668    4078.0351    1929.2174   0.60035015   0.46963381     1.266452  -0.18320469   0.19892621   0.35544282   0.09846947 
   42450        42389    268.55786   -7157.1412    1925.4271   0.60153197   0.47283018    1.2685851  -0.19915093    0.2593453   0.32609599   0.08653982 
   42500        42439     268.2747    4144.8035    1918.4438   0.60372162   0.47200436    1.2669203  -0.19093952   0.25857362   0.33272201  0.071648255 
   42550        42489    256.63556    504.52914    1912.9203   0.60546484   0.50198414    1.2624125  -0.19713842    0.2749448   0.34978443  0.074393334 
   42600        42539    255.65951   -2229.8282    1906.1027   0.60763042   0.49970074     1.257237  -0.19900185   0.23714491   0.38199276  0.079564913 
   42650        42589    241.40673    6292.3739    1900.4314   0.60944373   0.54154119    1.2568455  -0.14955721    0.2346651   0.36554848  0.090884817 
   42700        42639    265.96813   -4308.7656    1899.5342   0.60973156   0.47150542    1.2595868   -0.1979265   0.23555077   0.35016713  0.083714021 
   42750        42689    251.80834    5260.7073     1899.805   0.60964465   0.51244387    1.2585689  -0.20872312   0.20678233   0.40585978   0.10852487 
   42800        42739    243.61499   -854.87947    1897.4276   0.61040852    0.5367837    1.2586313  -0.19295077    0.2379469   0.41427118  0.077516397 
   42850        42789    251.95961    4751.4218    1895.3339   0.61108282   0.51288298    1.2594562  -0.17513415   0.20639354   0.39290055  0.088723044 
   42900        42839    239.04313    1017.9086    1895.5155   0.61102428   0.55496877    1.2632696  -0.17467786   0.23912218   0.38869146   0.10183299 
   42950        42889    249.05018   -2598.0395    1898.4155   0.61009086    0.5272084    1.2651608  -0.21406434    0.2782482   0.37218252  0.090842022 
   43000        42939    260.32556    5154.4646    1898.2199   0.61015375   0.49327168    1.2646338  -0.18438846   0.23834049   0.33611017   0.10320947 
   43050        42989    262.01359    -3917.563    1900.3606   0.60946642   0.48513773    1.2615016  -0.21190087   0.25228033   0.35887666   0.08588161 
   43100        43039    264.15402   -582.16961    1898.6023   0.61003084   0.47411708    1.2568232    -0.187974   0.20641719   0.35188634   0.10378755 
   43150        43089    269.14163    2942.3992    1894.4803   0.61135814     0.457166    1.2546507  -0.19563912   0.21544312   0.34982373  0.087538279 
   43200        43139    272.10544   -4383.9106    1887.4899   0.61362235    0.4443327    1.2505994  -0.19669063   0.25891842   0.30028341  0.081821495 
   43250        43189    262.19545    11661.862    1881.6584   0.61552404   0.47422604    1.2511287  -0.18560811   0.25582439   0.30580669  0.098203076 
   43300        43239    265.09372   -5720.1323    1881.0738   0.61571532   0.46590737    1.2513979  -0.20500929   0.22539219   0.35343016  0.092094303 
   43350        43289    256.48029    6675.9719    1882.1461   0.61536455   0.49034723    1.2503156  -0.17558655   0.24452584   0.33428779  0.087120149 
   43400        43339    269.65433   -2125.5415       1889.8   0.61287226   0.45211617      1.25112  -0.20353702    0.2245462   0.31576844   0.11533855 
   43450        43389    262.24906   -1216.0614    1896.6193   0.61066866   0.47640754    1.2534691  -0.21154847   0.24077181   0.34125451   0.10592969 
   43500        43439     262.6768    -1138.363     1899.396   0.60977594   0.47425675    1.2525857  -0.21851953   0.25299798   0.36012806   0.07965024 
   43550        43489     240.4122    1555.3227    1900.0206   0.60957549   0.53361801    1.2459755  -0.19529314   0.24616517   0.38518836   0.09755762 
   43600        43539    262.11573   -2830.1964    1901.6287   0.60905999     0.467216    1.2438825  -0.21728309   0.22155277   0.36597716  0.096969166 
   43650        43589    265.52715    825.22524    1899.4788   0.60974934   0.46012702    1.2469018  -0.18681478   0.25019637    0.3058005  0.090944943 
   43700        43639    245.57541   -1429.6912    1897.6602    0.6103337   0.52054959     1.248206  -0.20604865   0.26187298   0.37412471  0.090600561 
   43750        43689    259.44845    652.39339     1890.115   0.61277009   0.47404576    1.2428089  -0.17662032   0.25119491   0.29588837    0.1035828 
   43800        43739    268.57255   -296.08735    1882.5499   0.61523253   0.44307492    1.2388734   -0.2164417   0.24145551   0.33965303   0.07840807 
   43850        43789    264.41138    2505.5395    1872.1359   0.61865486   0.45472962    1.2381983  -0.20025749   0.21686777   0.34116734  0.096951997 
   43900        43839    269.85166      2483.61    1865.0795   0.62099549   0.43725742     1.236846  -0.19493918   0.22194306   0.32603876  0.084214774 
   43950        43889    250.94169     292.5187    1862.3997   0.62188905   0.49294491     1.236502  -0.17642891   0.22063619   0.34461902   0.10411861 
   44000        43939     247.8976    6302.3341    1865.8107   0.62075214   0.50632885    1.2408661  -0.17486551   0.22157007   0.35232779   0.10729649 
   44050        43989    265.47304   -3079.5327     1875.117    0.6176713   0.46090086    1.2475153  -0.18345846   0.22771508   0.32790192  0.088742328 
   44100        44039      257.301    3087.8454    1886.5162   0.61393904   0.48716234    1.2495625  -0.20120976   0.25822643   0.32081174   0.10933393 
   44150        44089     264.8732     12.56066    1895.7677   0.61094297   0.46329284    1.2481299  -0.18581197   0.26019728   0.29888192  0.090025608 
   44200        44139      250.113   -3634.5457    1902.3292   0.60883571   0.50607433     1.247176  -0.20399849   0.24739741    0.3824356  0.080239806 
   44250        44189    237.08922    5742.1634    1905.2744   0.60789458   0.54198013    1.2444914  -0.20519344    0.2889785   0.35124213   0.10695293 
   44300        44239    260.01242   -5861.1779    1905.8167   0.60772159   0.47741623    1.2478505  -0.21503909   0.27531147   0.31727794  0.099865918 
   44350        44289    251.26549    1084.1935    1902.3179   0.60883933   0.50349521    1.2480117  -0.21207823   0.24670568   0.37595415  0.092913616 
   44400        44339    253.59978   -1616.3233     1895.541   0.61101606   0.49600462    1.2474378   -0.2019952   0.23031944   0.37125488  0.096425512 
   44450        44389    262.03052   -454.15635    1889.4699   0.61297932   0.46876036    1.2451744  -0.22367669   0.21801632   0.37445413  0.099966599 
   44500        44439    255.14511    2710.9559    1882.9176    0.6151124   0.49296417    1.2489763  -0.15545209   0.20823527   0.35439401  0.085786968 
   44550        44489    286.33084    1805.8179     1885.542   0.61425627   0.40364443    1.2520619  -0.21118016    0.2006038   0.34595777  0.068263021 
   44600        44539     272.4282   -2853.5424     1886.495   0.61394595   0.44456819    1.2517913  -0.19888638    0.2058829   0.35158662  0.085985054 
   44650        44589    267.04872    3932.8963    1888.2139   0.61338705   0.46123939    1.2525227  -0.18855742   0.19565272   0.36358184  0.090562239 
   44700        44639     266.1828   -3448.7824    1891.8888   0.61219559   0.46781551     1.256533  -0.18899061   0.22260903   0.34824099  0.085956098 
   44750        44689    271.34507    619.02153    1893.2214   0.61176468   0.45121962    1.2552333  -0.21606289   0.23977389   0.35011386  0.077394756 
   44800        44739    268.57888   -36.346249    1892.4988   0.61199825   0.45826088    1.2540781  -0.19189176   0.22127598   0.34286093  0.086015728 
   44850        44789    255.01172     326.0281    1893.2848   0.61174419   0.49694203    1.2525589  -0.19931117   0.23702591   0.35180459   0.10742269 
   44900        44839    251.85933    2209.4984    1894.3155   0.61141133   0.50898559    1.2552617  -0.20775559   0.24868501   0.37513474  0.092921443 
   44950        44889    258.49496   -807.83734    1898.0508    0.6102081   0.48988857    1.2558265  -0.21070995   0.25876486   0.35403238  0.087801274 
   45000        44939    253.99646    1525.3625    1901.6813   0.60904317   0.50081031    1.2534189  -0.20498504   0.24929089   0.34549438   0.11101008 
   45050        44989    260.58104     695.8254    1906.1544   0.60761393   0.48415484     1.256274  -0.19439977   0.20689101   0.36322177   0.10844182 
   45100        45039    262.15807    1602.7483    1911.2296   0.60600043   0.47979942    1.2565914  -0.19197754   0.21959011   0.35962258  0.092564266 
   45150        45089    248.85282    333.81407    1917.3531   0.60406504   0.52014003    1.2575076  -0.19135875   0.24624036    0.3675691   0.09768931 
   45200        45139    263.58087   -2995.4453    1924.6551   0.60177326   0.47438758    1.2553954  -0.20096116   0.24266799   0.34139188  0.091288878 
   45250        45189    259.87936     108.0213    1930.3337   0.60000299   0.48483014    1.2548701  -0.18951828   0.23763283   0.33932404  0.097391554 
   45300        45239    257.66386    -3740.189    1935.1019   0.59852455   0.49085297    1.2543283  -0.21206125   0.22244941   0.38213361  0.098331202 
   45350        45289    251.35766    6189.9517    1935.7772   0.59831573   0.50893027    1.2537199   -0.1739182   0.22538843   0.36242758  0.095032463 
   45400        45339    252.02681   -1080.4918    1939.4773   0.59717429   0.50978993    1.2565623  -0.18284758   0.24018563   0.35651377    0.0959381 
   45450        45389    276.09115    2625.4083    1943.6659   0.59588738   0.44210094    1.2601776  -0.20073287   0.18774802   0.35945394  0.095631845 
   45500        45439    267.77306    1026.4353    1944.3709   0.59567132   0.46922246     1.262652  -0.19096359   0.22682327   0.34142054  0.091942241 
   45550        45489    267.04117   -944.79571    1942.0831   0.59637304   0.46840288    1.2596638  -0.21822832   0.24771247   0.33571992   0.10319881 
   45600        45539    268.15358    2784.0018    1934.8992   0.59858723   0.46423116    1.2587882  -0.20123301   0.21925026   0.36644914  0.079764771 
   45650        45589    263.50083    1869.9256    1929.2665   0.60033488   0.47857815    1.2593488  -0.19250522   0.22636198   0.35823849  0.086482907 
   45700        45639    261.49098   -8641.6782    1927.2018   0.60097806   0.48444579    1.2592611  -0.18794773   0.24376655   0.33750113  0.091125833 
   45750        45689    280.73908   -143.05916    1922.0018   0.60260401   0.42479592    1.2566447  -0.20524485   0.22877188   0.31084901  0.090419887 
   45800        45739    258.45058   -2722.4223     1914.652   0.60491721   0.48630348    1.2521099    -0.182435   0.22562939   0.33976989   0.10333919 
   45850        45789    258.14031    4104.5681    1908.8512    0.6067555   0.48899331    1.2538804  -0.18090204   0.22391217   0.37799126  0.067991926 
   45900        45839    256.30371    2688.1412    1909.1262   0.60666811   0.49191843    1.2513635  -0.20051182   0.22644692   0.37626018  0.089723147 
   45950        45889    261.87587    981.46538     1911.744   0.60583738   0.47048554    1.2464413  -0.18442227   0.21082386   0.35251468  0.091569266 
   46000        45939    252.08562    4098.5486    1916.4705   0.60434323   0.49915568    1.2461023  -0.18886237   0.20766338   0.37569826   0.10465641 
   46050        45989    256.22932    2038.8327    1923.0553   0.60227389   0.48818515    1.2474098  -0.16544898    0.2080896   0.35882113  0.086723414 
   46100        46039    259.21279   -2901.3342    1932.8345   0.59922666   0.48319909     1.251264  -0.20482862   0.24164553    0.3536325  0.092749677 
   46150        46089    266.71233    2855.0841    1937.3927   0.59781683   0.45972733    1.2500139  -0.19385648   0.23226438   0.31693934   0.10438009 
   46200        46139    263.03858   -10393.884     1940.347   0.59690663   0.47125786    1.2506588  -0.21540401   0.24533587   0.34652475  0.094801245 
   46250        46189    255.95512    5866.1217    1936.9316   0.59795914   0.49282632    1.2512385  -0.18554121   0.23616184   0.34933505  0.092870647 
   46300        46239    243.97546   -4101.3996    1934.6458   0.59866564   0.52995211    1.2528678  -0.20737781   0.25592172   0.38497359  0.096434609 
   46350        46289    249.72086    2633.2099    1930.3356   0.60000239   0.51681994    1.2567596  -0.18213423   0.23726143   0.38014459  0.081548148 
   46400        46339    252.07944    1466.7584    1926.1451   0.60130774   0.50750929    1.2544376  -0.21449632   0.24249982   0.39642148  0.083084303 
   46450        46389    235.88442   -211.63811    1917.7817   0.60393003   0.55390912    1.2528505  -0.16664803    0.2419568   0.37308913   0.10551122 
   46500        46439     232.8414    4593.8297    1908.7536   0.60678653   0.56694699    1.2568717  -0.18680286   0.22138696   0.42645044   0.10591244 
   46550        46489    258.14892   -4392.7983    1900.8828     0.609299   0.49256638     1.257479  -0.20251258    0.2262682   0.36943491  0.099375851 
   46600        46539    257.23913    4863.5894    1891.9562   0.61217378   0.49640372    1.2586205  -0.22533188   0.21949632   0.39231669   0.10992259 
   46650        46589    265.72649   -717.61794    1882.6045   0.61521471   0.47436389    1.2617293  -0.18997903   0.23054803   0.33284348   0.10095142 
   46700        46639    268.95337   -1777.8887    1878.8193   0.61645416   0.46813452    1.2650614  -0.21346471    0.2273949   0.36712243  0.087081894 
   46750        46689    270.65348     9551.221    1876.9012   0.61708416   0.46374231    1.2657067  -0.17383149   0.23214867   0.31432186   0.09110327 
   46800        46739    251.90972     -6266.72    1882.5128   0.61524468    0.5205742    1.2669996  -0.18722947   0.24585745   0.36440845  0.097537769 
   46850        46789    275.59614    3288.7613    1890.6866   0.61258487   0.44991324    1.2665231  -0.20859546   0.23945722   0.32830094  0.090750551 
   46900        46839    248.53365    199.06575    1898.3384   0.61011565   0.52699951    1.2634214  -0.14728026   0.22873068   0.35854677  0.087002312 
   46950        46889    259.37158    -2115.223    1909.5418   0.60653606   0.49403604    1.2625715  -0.18627182     0.240607   0.35791136  0.081789508 
   47000        46939    273.34845    4341.7115    1920.0565   0.60321452   0.44981035    1.2597602  -0.19934247   0.22218755   0.33771949  0.089245779 
   47050        46989    253.53534   -3114.2001     1926.952   0.60105594   0.50820755    1.2594498  -0.20866265   0.22240174   0.38231068   0.11215779 
   47100        47039    260.56119   -29.238147    1928.9534   0.60043233   0.48940876    1.2614691   -0.1679003    0.2321657   0.34617195  0.078971399 
   47150        47089    232.98601     5193.036     1930.829   0.59984905   0.57431126    1.2646644  -0.14788283   0.20760821   0.40117114   0.11341475 
   47200        47139    248.90091   -3079.5864    1936.2621   0.59816591   0.53554835    1.2730585    -0.192072   0.23419453    0.3865585   0.10686732 
   47250        47189    263.58153    5379.9784    1939.1775   0.59726662   0.49808799    1.2790978  -0.14896117   0.22683794   0.32834967  0.091861548 
   47300        47239    241.17101   -1454.4296    1944.7841   0.59554477   0.57023341    1.2848393  -0.16442885   0.28801344   0.36907343  0.077575395 
   47350        47289    261.60988    2649.5825    1951.5939   0.59346669   0.51127882    1.2864465  -0.16838768   0.29416519   0.31107397  0.074427347 
   47400        47339    253.08412    384.74459    1957.6398   0.59163385   0.53344952    1.2833548  -0.17291906   0.26529802    0.3628639  0.078206663 
   47450        47389    252.45425   -351.01789    1960.2558   0.59084429   0.53162863    1.2796675  -0.17800265   0.26097376   0.36057334  0.088084173 
   47500        47439    255.11554   -3834.7623    1960.5754   0.59074799   0.51983673    1.2757612  -0.17950335   0.23324752   0.37824524  0.087847323 
   47550        47489    256.87833     4326.248    1958.6832   0.59131867   0.51760611    1.2787539   -0.1797658   0.24585789   0.34841514   0.10309888 
   47600        47539     258.7633   -3284.6854    1955.9335   0.59214996   0.51212423    1.2788573  -0.16444768   0.24054018   0.36315703  0.072874699 
   47650        47589    276.17955    5589.8804    1954.5243    0.5925769   0.46075972    1.2790983  -0.18554893   0.25003505   0.31153756  0.084736036 
   47700        47639    261.75762    156.94173     1955.492   0.59228365    0.5004229    1.2760283  -0.17951044   0.25105321   0.34726794  0.081612193 
   47750        47689    271.30316    2216.9021    1958.0525   0.59150916    0.4710352    1.2749247  -0.14817995   0.22587928   0.32683986  0.066496005 
   47800        47739      280.589    8.5625253    1965.0796   0.58939393    0.4432596    1.2746637  -0.18830604   0.22437573   0.31277564  0.094414275 
   47850        47789    264.47084    632.41482    1969.9208   0.58794545   0.49106768    1.2747125  -0.16102112   0.23699537   0.33736124   0.07773219 
   47900        47839    267.38898    -2849.004    1971.7365   0.58740403   0.48016274    1.2724542  -0.16617089   0.24293025    0.3173353  0.086068083 
   47950        47889    258.82632     5967.639    1973.1159   0.58699338   0.50830835    1.2752281  -0.15450779    0.2329781   0.34653513  0.083302902 
   48000        47939    243.27823   -4861.0532    1975.2189    0.5863684   0.55697357    1.2778233  -0.18431968    0.2528967   0.40111791  0.087278639 
   48050        47989    257.50715     4746.713    1973.6217   0.58684294   0.51614876    1.2791597  -0.18544575   0.26233391   0.35230228   0.08695831 
   48100        48039    236.00367   -5569.7042    1969.7939   0.58798333   0.57930201    1.2785967  -0.19047693    0.2844453   0.38713589  0.098197739 
   48150        48089    231.39606    3547.1411    1962.7568   0.59009145   0.59458877    1.2802308   -0.1734444   0.29534782   0.37238973   0.10029562 
   48200        48139    253.81703    514.81055    1957.8449   0.59157188   0.52781417    1.2798911  -0.17375214   0.26856331   0.36316504  0.069837958 
   48250        48189    234.03062   -1916.5076    1956.9764    0.5918344   0.58482521    1.2782737  -0.17713639   0.25430372   0.38948249   0.11817539 
   48300        48239    263.06846    958.43349    1956.1349   0.59208901   0.49868372    1.2781732   -0.1681889   0.24506839   0.34585549  0.075948743 
   48350        48289    242.06517     605.5074    1958.0008   0.59152477   0.56257901    1.2798344  -0.15745098   0.24537501   0.37264382   0.10201117 
   48400        48339    277.03053    1497.3261      1961.55   0.59045448    0.4591553    1.2800154  -0.19845755     0.229825   0.35640295  0.071384901 
   48450        48389    273.70298    963.02647     1959.678    0.5910185    0.4618151    1.2728154  -0.18305514   0.23644564   0.31811473  0.090309874 
   48500        48439    255.69921   -2654.0685    1955.9918   0.59213233   0.51047264    1.2681266  -0.18971429   0.25814487   0.35743895  0.084603117 
   48550        48489    284.16495    2790.1662     1949.771   0.59402153    0.4244993    1.2664991  -0.18601905   0.24709093   0.27726569  0.086161742 
   48600        48539    257.68085   -3506.5087     1942.981   0.59609743   0.50174642    1.2652721  -0.19426784   0.27166423   0.31323564    0.1111144 
   48650        48589     281.7939    3045.3962    1933.6758   0.59896596   0.42942247    1.2643967  -0.16418118   0.22448267   0.29617099   0.07294999 
   48700        48639    275.03845   -2357.4858    1927.0233    0.6010337   0.45054237    1.2654998  -0.18696757   0.24361304    0.3033422  0.090554699 
   48750        48689    268.98297   -342.29102    1921.3358    0.6028129   0.46890274    1.2659173  -0.18301923   0.21507422   0.32315909   0.11368865 
   48800        48739    287.93534     3775.203    1915.2894    0.6047159   0.41376876    1.2669405  -0.18924666   0.22464268   0.30205875  0.076313984 
   48850        48789     272.8359   -5391.7348    1910.9827   0.60607874   0.46171032    1.2701414  -0.19186367   0.24956742   0.33368735   0.07031921 
   48900        48839    245.13478    4106.8042    1907.9526   0.60704126   0.54097094    1.2673217   -0.1751512   0.28361893   0.32160565   0.11089756 
   48950        48889    258.63135   -4364.7645     1906.655   0.60745441   0.50244996     1.268792  -0.20323604   0.28814974   0.34596749   0.07156877 
   49000        48939    253.43086    993.10422    1902.2115   0.60887338     0.514785    1.2657176  -0.18855308   0.28898799   0.32067845  0.093671637 
   49050        48989    253.94365   -2251.8417    1898.4183   0.61008997   0.51081425    1.2632663  -0.20430998   0.27286311   0.34124984   0.10101128 
   49100        49039    243.81389   -531.68753    1890.1077   0.61277246   0.54081295    1.2632499  -0.17765269   0.27388285   0.36064283  0.083939968 
   49150        49089    270.48109    4180.0119    1882.4555   0.61526338   0.46019308    1.2616467  -0.21962662   0.23750691    0.3608464  0.081466385 
   49200        49139    267.67174    3667.3033      1874.62   0.61783506   0.46495215    1.2580815  -0.19913867   0.21498413   0.34166753   0.10743915 
   49250        49189    260.24874   -986.12637     1870.861   0.61907643   0.48849037    1.2596249  -0.20146009   0.22890342   0.37564578  0.085401268 
   49300        49239     264.2932    2654.4852    1868.9459   0.61971081   0.47422137    1.2573399  -0.20423527   0.25205401   0.31430253   0.11210009 
   49350        49289    259.67334   -3216.8319    1867.1023   0.62032272   0.48872644     1.258156  -0.19873152   0.22544791   0.36972036  0.092289674 
   49400        49339    267.60298    2135.7675    1866.2471   0.62060697   0.46467872    1.2576043  -0.19897419   0.22976997   0.34628879  0.087594145 
   49450        49389    260.87162   -1413.3696    1866.3613     0.620569   0.48414131    1.2571214  -0.19659636   0.22742196   0.36562685  0.087688862 
   49500        49439     269.5896   -4065.8969    1866.1515   0.62063877   0.45683809    1.2556502  -0.20021641   0.22343803    0.3366834  0.096933073 
   49550        49489    260.93495    3972.1308    1864.1823   0.62129439   0.48129804    1.2544658  -0.21498535   0.24975115   0.34183847   0.10469378 
   49600        49539    257.66914   -1095.0252    1860.4065   0.62255531   0.48967739    1.2531684  -0.21712088   0.27172831   0.34561184  0.089458127 
   49650        49589    267.60853    3766.2047     1853.999    0.6247069   0.45662717    1.2495692  -0.20357007   0.26473765   0.30560719  0.089852391 
   49700        49639    259.64325    48.002714    1849.1534   0.62634392   0.48126893    1.2506093  -0.21335064   0.26067945   0.33642017   0.09751995 
   49750        49689    247.70876    700.82795    1845.5417   0.62756965   0.51717351    1.2511512  -0.19832752   0.24183376   0.36225586   0.11141142 
   49800        49739    252.74577    5179.5197    1840.7548   0.62920167   0.50199151    1.2508942  -0.20522964   0.24664403   0.36612008  0.094457026 
   49850        49789    267.62657   -3946.6668    1839.0721   0.62977735   0.45650022    1.2494957  -0.20628921   0.24023966    0.3272652  0.095284571 
   49900        49839    265.81661    391.30331    1838.5243   0.62996502   0.45813841    1.2457709  -0.19923218   0.21948633   0.33911118  0.098773087 
   49950        49889    264.66694   -824.40038    1839.1304   0.62975739   0.45962599    1.2438519  -0.20098143   0.24311046   0.32843023  0.089066718 
   50000        49939    273.95144    628.77864    1842.4078   0.62863713   0.43539837    1.2471349  -0.19368781   0.19957243   0.33501963  0.094494114 
   50050        49989    266.29169    4511.6454    1845.4892   0.62758752   0.45766732    1.2467075  -0.22424527   0.22641965   0.36665867  0.088834276 
   50100        50039    244.30938   -4728.6739    1843.3317   0.62832205   0.52087834    1.2447834  -0.20061737   0.25035767    0.3828956  0.088242434 
   50150        50089    258.85815    5522.3055    1841.6468    0.6288969   0.47850692     1.245521  -0.21911641   0.25679449   0.35182357  0.089005266 
   50200        50139    262.55603   -3010.9571     1839.157   0.62974829   0.46892521    1.2468964  -0.20554275   0.25501202   0.33416101  0.085294916 
   50250        50189     269.2575   -323.90574    1838.5814   0.62994545   0.44690388    1.2447319  -0.21822591   0.20734562   0.35181424   0.10596993 
   50300        50239    265.98385    4722.1043    1837.1512   0.63043584   0.45915851    1.2472865  -0.19335905    0.2384407   0.32195334  0.092123526 
   50350        50289    262.78626   -7574.2734    1837.9041   0.63017758   0.46744787    1.2461012  -0.22602124   0.25433739   0.33789474   0.10123698 
   50400        50339    274.00015   -528.60787    1835.4732    0.6310122   0.43213052    1.2440114  -0.20333993   0.23140239   0.29516512   0.10890295 
   50450        50389    272.59945    3018.6341    1834.6264   0.63130345   0.43504067    1.2427711  -0.18653218   0.21023595   0.32751828  0.083818625 
   50500        50439    256.02072    743.14365    1836.9978    0.6304885   0.48889255    1.2474991  -0.20720763   0.24162159   0.35229104   0.10218755 
   50550        50489    267.95341    12291.152    1840.6821    0.6292265   0.45473854    1.2487025  -0.19698752   0.26368668   0.31487014  0.073169236 
   50600        50539    247.64569    -3420.987    1846.5258   0.62723521   0.51277574    1.2465665  -0.21623982   0.28353122   0.36423539  0.081248951 
   50650        50589    268.11421    2543.8526    1851.3243   0.62560944   0.44853814    1.2429785  -0.21460347   0.25960111   0.31696318  0.086577326 
   50700        50639    255.30219   -1246.5142    1854.5537   0.62452005   0.48348706    1.2399646  -0.21245996    0.2568475   0.34685061  0.092248916 
   50750        50689      249.171   -3060.9805    1856.7515    0.6237808   0.50015662     1.238467   -0.2062924   0.25780602   0.34081931    0.1078237 
   50800        50739    243.52519    1568.3803    1857.6302   0.62348574   0.52158245    1.2431639  -0.18221429   0.27413597   0.32819736   0.10146341 
   50850        50789    257.92933   -3257.3031    1859.7015   0.62279132   0.48151182    1.2457737  -0.20306623   0.26285427   0.33771679  0.084006994 
   50900        50839    250.93952    332.01654    1862.6985   0.62178928   0.50294443    1.2464951   -0.1823545   0.23461661   0.35884207  0.091840245 
   50950        50889    264.34614    3257.2456    1865.5473   0.62083977   0.46472176    1.2479971  -0.22070403   0.23577394   0.36149669  0.088155164 
   51000        50939    271.93065   -4220.5414    1864.9209   0.62104832   0.44286479    1.2486136  -0.18050366   0.23528169   0.31212177  0.075964976 
   51050        50989    268.56646    7545.6043    1864.4764   0.62119638   0.45383454     1.249615  -0.21616926   0.25414978   0.32347069  0.092383327 
   51100        51039    261.05517   -7793.7815    1860.4181   0.62255143   0.47560544    1.2491294  -0.21636231   0.26620845   0.34136479  0.084394511 
   51150        51089      276.843    4142.8334    1852.6722   0.62515428   0.42694931    1.2472537  -0.21784953   0.25344062   0.30965054   0.08170768 
   51200        51139     279.4029   -5904.7589    1841.7937   0.62884673   0.41540392    1.2432935  -0.22383372   0.25144739   0.29119796  0.096592293 
   51250        51189    276.26533    -1036.311    1827.6003   0.63373046   0.42134228     1.239935    -0.207912   0.24967402   0.28598279  0.093597465 
   51300        51239    265.57355    1046.4772    1815.1408   0.63808053   0.45853513    1.2454474  -0.21348917   0.26609517   0.30062745   0.10530168 
   51350        51289    243.84601   -4547.7677    1805.4592   0.64150215   0.52416687     1.246699  -0.20931259   0.24849508   0.36900184   0.11598254 
   51400        51339     274.0132    1571.9612    1795.3598   0.64511077   0.43614932    1.2480688  -0.23425608   0.25583311   0.31893342  0.095638881 
   51450        51389    282.71573   -617.56809    1783.5747   0.64937338   0.40462022    1.2423259  -0.22465058   0.23103876   0.31368531   0.08454673 
   51500        51439    268.85362    2220.5361    1772.1314   0.65356663   0.44240566     1.239037  -0.20911999   0.23859525   0.34486616  0.068064238 
   51550        51489    259.16746    512.96112    1764.4501   0.65641186   0.46639875    1.2343293  -0.22689946   0.24184758   0.34815359   0.10329704 
   51600        51539    261.37958    108.94284    1758.8199   0.65851311   0.45554947    1.2300347  -0.24093887   0.24537388   0.36437873  0.086735739 
   51650        51589    266.65171   -810.74367    1754.3255   0.66020018   0.43616381    1.2262707  -0.23287954   0.22691198    0.3627989  0.079332477 
   51700        51639    269.22186    2848.8404    1753.3264   0.66057635   0.42787697    1.2255994  -0.23389548   0.22317417   0.35922505  0.079373231 
   51750        51689    260.87754   -4351.2917    1755.5575   0.65973685   0.45400951    1.2270072  -0.23611807    0.2604075   0.35522593  0.074494146 
   51800        51739    252.94218    6872.8867    1756.4547   0.65939984   0.47222727    1.2217119  -0.23221444   0.25343432   0.35430998  0.096697405 
   51850        51789    232.95431   -2760.9957    1758.9181   0.65847636   0.53003253    1.2202918  -0.20335613   0.25777883    0.4015119  0.074097924 
   51900        51839    266.45831    3577.5106    1765.1058   0.65616801   0.43081715     1.220351  -0.22578073   0.25829002   0.32172688  0.076580977 
   51950        51889     271.4004   -5365.7966    1772.3881   0.65347199   0.41722833    1.2214059  -0.21862042   0.25205104   0.29939835  0.084399364 
   52000        51939    279.17588    3856.1191    1780.2708   0.65057853   0.39530361    1.2225205  -0.22457477   0.23502656   0.30970591  0.075145915 
   52050        51989    265.21815    731.61511    1786.3192   0.64837572   0.43317213    1.2190313  -0.21493886   0.20158598   0.35409093  0.092434081 
   52100        52039    264.18777   -59.060644    1792.3348   0.64619958   0.43930638    1.2221125  -0.22425263   0.21172472   0.35992632  0.091907971 
   52150        52089    281.22231   -1812.4807     1798.711   0.64390887   0.39196955    1.2252501  -0.24139994   0.22853767    0.3296093  0.075222518 
   52200        52139    266.94211   -320.95736     1801.969   0.64274466   0.43678681    1.2277542  -0.22103891   0.21915603   0.34525018  0.093419518 
   52250        52189    262.21281     3935.311    1807.4345   0.64080109   0.45270724    1.2296614  -0.22728047   0.24274615   0.35048317  0.086758385 
   52300        52239     257.4841   -1369.5482     1811.877    0.6392299   0.46828247    1.2312252  -0.23612089   0.24672657   0.37391605  0.083760742 
   52350        52289     244.7545   -2322.9151    1811.9381   0.63920836   0.50746476    1.2326888  -0.19572778   0.27389002    0.3543032  0.074999316 
   52400        52339     261.0225    2954.9469    1813.7987   0.63855264   0.45770348    1.2311307  -0.22515715   0.27655132   0.32633708  0.079972229 
   52450        52389    257.18842    49.065876    1813.8859   0.63852197   0.46746768    1.2295342  -0.20151117   0.23653469   0.34746606  0.084978091 
   52500        52439    276.47266    -2162.379     1815.715   0.63787871    0.4072879    1.2264949  -0.23338703   0.21228545   0.34368797  0.084701514 
   52550        52489    265.17803    -2692.433     1813.986   0.63848671   0.43783677    1.2235771  -0.22944307   0.23719272   0.34875449  0.081332629 
   52600        52539    274.96496    2.5221097    1809.7585    0.6399782    0.4042662    1.2190058  -0.20263822   0.20410026   0.33269365  0.070110513 
   52650        52589    287.14131    2504.2417    1809.1477   0.64019425   0.36743239    1.2182514  -0.24587643   0.21865552   0.30413299  0.090520315 
   52700        52639    262.29294    1667.4107    1807.7838   0.64067727   0.44415563    1.2213472  -0.21670355   0.22380086   0.33938561  0.097672714 
   52750        52689     262.8547    2169.2214    1809.3444   0.64012464   0.44776717    1.2266233  -0.21840253   0.23738079   0.33526391  0.093525004 
   52800        52739     264.2393    3713.4007    1813.1444   0.63878308   0.44445657    1.2274154  -0.23229226   0.24672598   0.32708339   0.10293947 
   52850        52789     254.5232   -2661.3371    1815.7542   0.63786497   0.47737604    1.2315454  -0.20644825   0.25212893   0.34797976  0.083715605 
   52900        52839     263.3989    5172.9424    1821.0782   0.63600012   0.44947514    1.2299438  -0.22479906   0.25389636     0.338182  0.082195841 
   52950        52889    243.27991   -3991.0411    1828.8522   0.63329664   0.50785851    1.2287132   -0.1973089   0.25309261   0.37077217  0.081302631 
   53000        52939    260.14759    1250.0418    1840.7004   0.62922026    0.4584417    1.2292765  -0.22294816   0.21585105   0.39216445  0.073374365 
   53050        52989    267.75529    880.83575    1850.9107   0.62574925   0.43178864    1.2251656   -0.2178279   0.20707148   0.37026569   0.07227937 
   53100        53039     255.5655    864.58513    1855.9971   0.62403436    0.4680791    1.2253368  -0.19736876   0.20684845   0.38090523  0.077694173 
   53150        53089    267.24089   -453.60881    1859.9714   0.62270096   0.43410543    1.2259581  -0.21845871   0.21711939   0.35448734  0.080957402 
   53200        53139    270.49105    4125.6814    1858.9229   0.62305218   0.42561485     1.227098  -0.20607421    0.1991072   0.36286954  0.069712314 
   53250        53189    260.43305    401.46743    1857.0232   0.62368954   0.45519222    1.2268728  -0.21495331   0.21294998   0.36119896  0.095996596 
   53300        53239    253.32721    998.53575    1853.6172   0.62483557   0.47991996    1.2305455  -0.20503221   0.24635319   0.35415998  0.084439001 
   53350        53289    221.47849    -2689.387    1848.4341   0.62658766   0.57788321    1.2341389  -0.21214406    0.2747905   0.43540634  0.079830422 
   53400        53339    264.40578   -135.68383     1845.769   0.62749238   0.44878717    1.2322392   -0.2227581   0.23344476   0.36036497   0.07773555 
   53450        53389    255.41861   -1440.3086    1842.4925   0.62860825    0.4738882    1.2307107  -0.20256209   0.23439907   0.36430717  0.077744045 
   53500        53439    269.62772    1705.5126    1840.6821   0.62922651   0.43333253    1.2322576  -0.23510709    0.2523095   0.34948783  0.066642296 
   53550        53489    253.24927   -2354.2275    1835.9102   0.63086198   0.47826797    1.2286626  -0.22087711   0.25691975   0.36254013  0.079685202 
   53600        53539    249.22348    4111.8704    1826.5079   0.63410949   0.48773012     1.226196  -0.21973385   0.24514072   0.37924679  0.083076468 
   53650        53589    254.18232    85.514178    1816.6731    0.6375423   0.46920565    1.2223649  -0.19447681   0.24035513   0.34086748  0.082459853 
   53700        53639    271.52512     2159.271    1807.1815   0.64089079   0.41915439    1.2237015   -0.2255106   0.21794136    0.3533788  0.073344822 
   53750        53689    262.50917   -714.76798    1800.0488   0.64343032   0.44818127    1.2260136  -0.21489794   0.22863538   0.34752526  0.086918567 
   53800        53739    265.80905    1346.2897    1797.6367   0.64429367   0.43869343    1.2263035  -0.21049159   0.22546574   0.34491594  0.078803335 
   53850        53789    239.84801   -2456.1969    1795.7164   0.64498267   0.51877278    1.2294585  -0.20321624    0.2363602   0.39609008  0.089538743 
   53900        53839    264.21034    1930.3704    1796.9096   0.64455439   0.44604514    1.2289181  -0.21952883   0.19451581   0.35703588   0.11402227 
   53950        53889    257.25204   -4020.5925    1797.1144   0.64448095   0.47010814    1.2323632  -0.22298749    0.2476667    0.3573357  0.088093231 
   54000        53939    243.45767    1373.3724    1797.5572   0.64432218   0.51718248    1.2385639  -0.19749232   0.28617611   0.35213222  0.076366478 
   54050        53989    244.64629    383.94142    1801.8714   0.64277948   0.51400895    1.2389123  -0.22690036   0.27727891   0.38093778  0.082692619 
   54100        54039    247.15152    5249.7438     1803.292   0.64227311   0.50619106    1.2385176    -0.198474   0.24172783   0.38659715   0.07634009 
   54150        54089    250.23851    489.90895    1806.5439   0.64111698   0.49612345    1.2375969  -0.22417542   0.23405248   0.39863207  0.087614325 
   54200        54139    266.95897    2192.1901    1807.6692   0.64071788   0.44451267      1.23553  -0.22756239   0.21092654   0.37217923  0.088969285 
   54250        54189    252.17279   -1028.6604    1808.3778   0.64046683   0.49233458    1.2395395   -0.2045212   0.27363394   0.31625326   0.10696859 
   54300        54239    260.91737   -101.11889    1811.9521   0.63920342   0.46768948    1.2408052  -0.23194442   0.23756941   0.37543374  0.086630751 
   54350        54289     267.7586   -704.43683    1814.3924    0.6383437   0.44640312    1.2397898  -0.22198829   0.24145939   0.35551681  0.071415206 
   54400        54339    259.54685   -3044.1364    1817.2642   0.63733494   0.46778109    1.2368358  -0.21402399   0.23882139   0.35697829  0.086005403 
   54450        54389    279.75651    1780.0087    1819.7008   0.63648154   0.40714945    1.2360868  -0.23090243   0.24200176   0.31317019   0.08287993 
   54500        54439    253.77834   -1270.6144    1823.6159   0.63511508   0.48710315    1.2390654  -0.19573102   0.27950683   0.31643905  0.086888287 
   54550        54489    256.51993    2627.2642    1831.1442   0.63250398   0.48147881    1.2415646  -0.21759053   0.27752442   0.34702622  0.074518696 
   54600        54539    278.76117    -1176.355    1836.1895   0.63076602   0.41140561    1.2373937  -0.23054741   0.24676232    0.3312179  0.063972795 
   54650        54589    269.72349    1558.9097    1837.9908   0.63014786   0.43353476    1.2327436  -0.21808085   0.23475199   0.33998314  0.076880475 
   54700        54639    275.78757    -1617.292    1839.2219   0.62972605   0.41241694     1.229594  -0.23469908   0.23742163   0.32956854  0.080125847 
   54750        54689    264.74302    76.497502    1839.5637   0.62960906   0.44465335    1.2291047  -0.21883713   0.27006575   0.32386536  0.069559375 
   54800        54739     267.2486   -1583.7856    1841.9019    0.6288098   0.43453039    1.2264059  -0.21717317   0.23717686   0.34892487  0.065601822 
   54850        54789    273.33681    2913.2772     1846.149    0.6273632    0.4124317     1.222347  -0.21391039   0.19839175   0.33765351  0.090296823 
   54900        54839    263.78113   -2510.2733    1852.7597   0.62512476   0.44479253    1.2263937  -0.20266842   0.24053134   0.32973933  0.077190285 
   54950        54889    265.08969    3364.7263     1861.975    0.6220309   0.44500462    1.2304832  -0.21783251   0.24230742   0.34585957  0.074670139 
   55000        54939    262.83842    -2650.575    1868.2411   0.61994459   0.45262641    1.2314343  -0.20652958   0.27681393    0.3089753  0.073366756 
   55050        54989    245.38613    2056.1812    1872.5294   0.61852486   0.50470844     1.231804  -0.20649729   0.24648476   0.39116911  0.073551852 
   55100        55039    258.73697    1936.2874    1874.4464   0.61789227   0.46491567    1.2315707  -0.20370599   0.24454664   0.36030901  0.063766012 
   55150        55089    257.95706   -2457.1982     1873.882   0.61807838   0.46601581    1.2303599  -0.19426863   0.25651944   0.34209414  0.061670859 
   55200        55139    255.80237    234.91815    1873.0811   0.61834266   0.47278643     1.230746  -0.21951774   0.25082654   0.37414264  0.067334986 
   55250        55189    264.40235   -316.01273    1869.5187   0.61952092   0.44830284    1.2317448  -0.19666033   0.21419109   0.36320904  0.067563045 
   55300        55239    253.99547   -128.22353    1866.9492   0.62037359   0.47844294    1.2310486  -0.19171215    0.2123348   0.37503208  0.082788202 
   55350        55289    278.29656    4315.6322    1868.4253   0.61988349   0.41025142    1.2348628  -0.20666228   0.18481162   0.35644382  0.075658269 
   55400        55339    269.01093   -295.15612     1870.313   0.61925782   0.44238592    1.2394834  -0.19059705   0.19288825   0.37742427  0.062670458 
   55450        55389     248.2361    543.38094    1874.0306   0.61802937   0.50705538    1.2425956  -0.21226931   0.25368167   0.38487739  0.080765626 
   55500        55439    273.77506    4045.5182     1874.023   0.61803188    0.4319322    1.2431461  -0.19411378   0.24737061   0.31312595   0.06554943 
   55550        55489     259.9204   -4233.8763    1876.0207   0.61737378   0.47494483    1.2451064  -0.21316607   0.24155921   0.37006869  0.076483007 
   55600        55539     270.6515     8344.547    1875.9832    0.6173861   0.44427622    1.2462348  -0.20176331   0.24544462   0.32820181  0.072393105 
   55650        55589    235.26488   -8472.4175    1876.1775   0.61732218   0.55217604    1.2492817  -0.20529169   0.30893352   0.36366878  0.084865427 
   55700        55639    254.54451    6912.0591    1876.3543   0.61726401    0.4933879    1.2476204  -0.18605487   0.28612177   0.30582046   0.08750054 
   55750        55689     265.1677   -3343.9415    1881.2398   0.61566099    0.4632325    1.2489422  -0.20285437    0.2397902   0.34263729  0.083659389 
   55800        55739    275.37482    614.50389    1887.8385   0.61350902   0.43458619    1.2505403  -0.19733575   0.21667309   0.33997736  0.075271491 
   55850        55789    257.59622    1896.2772    1894.2986   0.61141678   0.48722157    1.2504965  -0.19599418   0.24192712   0.35512855  0.086160078 
   55900        55839    261.93673   -2264.9089    1898.2312    0.6101501   0.47599249    1.2521286   -0.1932961     0.239892   0.34683918  0.082557405 
   55950        55889    274.47351    761.89067    1898.4535   0.61007866   0.43673029    1.2500137  -0.19790232   0.24375371    0.3237848  0.067094113 
   56000        55939    252.61258    -61.46541    1896.0334   0.61085738   0.50115998     1.249668  -0.19617575   0.24048823   0.38230969   0.07453781 
   56050        55989    254.06792   -1794.0285    1892.4123   0.61202624   0.49540152    1.2482218  -0.19041549   0.26187615     0.331927  0.092013852 
   56100        56039    257.39996    2058.1994    1888.0798   0.61343064   0.48728017    1.2499735  -0.20188474   0.27325322   0.33904874  0.076862953 
   56150        56089    270.29531   -643.67596    1884.5764   0.61457098   0.44955925    1.2504624  -0.20697877   0.24804921   0.34375291  0.064735896 
   56200        56139    276.15446    1523.9183    1882.2199   0.61534041   0.42887878     1.247143  -0.20716204   0.23356976   0.31082063  0.091650427 
   56250        56189    258.94991    630.89579     1879.601   0.61619779   0.47936115    1.2466471  -0.21772411   0.23441349   0.38668002  0.075991753 
   56300        56239    249.30683    1062.6074    1877.8762   0.61676375   0.50612738    1.2448402  -0.19274409   0.25403404   0.37299078  0.071846645 
   56350        56289    280.40143    2488.5909     1880.134   0.61602309   0.41437041    1.2452187  -0.20957704    0.2214649   0.33259431  0.069888246 
   56400        56339    272.40133   -2654.1413    1883.1858   0.61502481   0.43644932    1.2435928  -0.19375446   0.23839306   0.31834611  0.073464604 
   56450        56389     265.5594    5611.6916    1885.0193   0.61442659   0.45587983    1.2427502  -0.19744156   0.26597317    0.3007555  0.086592717 
   56500        56439    250.82996   -4996.1385    1886.1679   0.61405244   0.50349007    1.2467161  -0.19874311   0.28278578     0.349856  0.069591403 
   56550        56489    247.53964    2129.8734    1888.4513   0.61330994   0.51717824    1.2506548  -0.19643664   0.27686933   0.36417415  0.072571401 
   56600        56539    255.75788   -2312.6291    1891.2017   0.61241799   0.49375982    1.2515876  -0.21664766   0.26764615   0.35349645   0.08926489 
   56650        56589    252.27642    196.26171    1888.9062   0.61316225   0.50076804      1.24828  -0.21970913   0.24012197   0.39725624  0.083098973 
   56700        56639    252.58932    1468.0378    1884.0944   0.61472819   0.49852102    1.2469601  -0.22363855    0.2453978   0.38101958  0.095742191 
   56750        56689     249.6706   -1802.7611    1876.6862   0.61715483   0.50944088    1.2492316  -0.21256899   0.25980863   0.37314907  0.089052161 
   56800        56739    266.16882    741.56606    1867.3656   0.62023526    0.4568031    1.2454792  -0.21145918   0.22571567   0.34788529  0.094661321 
   56850        56789    265.80677    202.17456    1859.5585   0.62283922   0.46052078    1.2481241  -0.22366653   0.23599704   0.37364847  0.074541798 
   56900        56839    291.55604   -4.1603797    1852.2004   0.62531352   0.38287611    1.2467762  -0.21679016   0.19286679   0.32657209  0.080227396 
   56950        56889    276.60069   -2617.3954    1846.4003   0.62727784   0.42770632    1.2472927  -0.21803639   0.22786102    0.3204472  0.097434489 
   57000        56939    262.15327    2131.9556    1838.3071   0.63003945    0.4725372     1.249315  -0.20394995   0.24505843   0.33732028   0.09410844 
   57050        56989    264.33258   -4621.9605    1832.0824   0.63218008   0.46676974    1.2500049   -0.2287082    0.2758226   0.34358162  0.076073724 
   57100        57039     265.3114    4684.2832    1824.0311   0.63497051   0.46081036    1.2469458  -0.21412298   0.24244451   0.35589129  0.076597541 
   57150        57089    263.32451   -3781.2607     1814.474   0.63831498   0.46120383     1.241452  -0.25914908    0.2639761   0.37099044   0.08538637 
   57200        57139     237.3558     6323.328     1800.984   0.64309619   0.53412822    1.2374294  -0.19429801   0.26017161   0.37997662  0.088278002 
   57250        57189    252.30006   -1073.6175    1790.4735   0.64687131   0.49093324    1.2385152  -0.23846733   0.25512893   0.39907984  0.075191789 
   57300        57239    260.83887    4024.5083    1782.8482   0.64963801    0.4621806    1.2350637  -0.20351821   0.21824531   0.35741361  0.090039887 
   57350        57289     262.2452   -1773.9999       1779.5   0.65086035   0.46141907    1.2384692  -0.22749795   0.23161191   0.36645336  0.090851749 
   57400        57339    263.19329    6644.1059    1776.6031   0.65192163   0.45670138    1.2365608  -0.20033895   0.21879466   0.37531775  0.062927909 
   57450        57389    269.85511   -1678.4836    1777.4545   0.65160936   0.43381364    1.2334125  -0.23035819   0.22198464   0.36175649  0.080430704 
   57500        57439    267.17302    2566.1096    1778.1855   0.65134148   0.43874607    1.2303977  -0.22462003   0.23205874    0.3544038  0.076903554 
   57550        57489    243.44301     374.8416    1780.9341   0.65033623   0.50974408    1.2310821  -0.22590347   0.29427499   0.36447587  0.076896692 
   57600        57539    249.33096    998.92078     1785.578   0.64864484   0.49271954    1.2315039  -0.22813629   0.25358893   0.37352667  0.093740232 
   57650        57589    260.28451    2629.8402    1791.3305   0.64656187   0.46168937    1.2329298  -0.21701974   0.22316449    0.3814664  0.074078222 
   57700        57639    252.02392   -423.19031    1797.0334   0.64450998   0.48412726     1.230891  -0.23705497   0.25076983    0.3779843   0.09242809 
   57750        57689    259.40973   -13.201807    1799.4614   0.64364035   0.46335757     1.232006  -0.22963939   0.25187441   0.37477911  0.066343445 
   57800        57739     254.0733    -1188.993    1800.4034   0.64330359   0.47869063    1.2315269  -0.22716199   0.25189448   0.38258287  0.071375262 
   57850        57789    271.85103    1467.5075    1800.2786    0.6433482   0.41916896    1.2246818  -0.22845654   0.22941473   0.34952919  0.068681573 
   57900        57839    267.49771    1993.4998    1799.2458    0.6437175   0.42592754    1.2185412  -0.23561658   0.23277427   0.35683028   0.07193956 
   57950        57889    263.09478    2054.6109    1799.5887   0.64359482   0.43894853     1.218516  -0.22633499    0.2243562   0.36264056   0.07828677 
   58000        57939    260.98005   -2109.9723    1801.9811   0.64274035   0.44574307    1.2190445  -0.23655006   0.23134523   0.37438301  0.076564877 
   58050        57989    257.59845    2580.0646    1802.6952   0.64248574   0.45386975    1.2171512  -0.22085915    0.2561323   0.34678854  0.071808056 
   58100        58039    265.24967    1323.7542    1802.7494   0.64246642   0.42849175    1.2144443  -0.21326672   0.25440188   0.32577146  0.061585133 
   58150        58089    274.34211    5580.9237    1806.8286   0.64101597    0.3982675    1.2111616  -0.21512382   0.23837918   0.31767578  0.057336356 
   58200        58139    262.47943   -4240.0621    1813.2975   0.63872916   0.43184466    1.2095888  -0.20469576   0.24039435   0.33070506  0.065441015 
   58250        58189      258.017    1529.8145    1822.8566   0.63537964   0.44739628     1.211918  -0.19853801   0.24468671   0.34264438  0.058603199 
   58300        58239    258.69737   -511.97009    1834.6854   0.63128314   0.44657137     1.213109  -0.21262038   0.27774704   0.31229453  0.069150185 
   58350        58289    254.46359    1732.3205     1846.393   0.62728032   0.46071204    1.2147047  -0.21900833   0.26278443   0.34761281  0.069323131 
   58400        58339    251.43349    502.39771    1858.2612   0.62327405   0.47285645    1.2178708  -0.20754704   0.29665577   0.31574173  0.068005995 
   58450        58389    243.11964   -928.29372    1870.2375   0.61928282   0.50023997    1.2206198  -0.22192682   0.30186185   0.35769544  0.062609498 
   58500        58439    239.00476   -3567.2341    1878.3398   0.61661152   0.51696199    1.2251491  -0.20851526   0.29952597   0.36242779  0.063523496 
   58550        58489     265.7306    2646.2699    1884.0195   0.61475263   0.43750602    1.2248836  -0.21835669    0.2926875   0.29420983  0.068965389 
   58600        58539    240.79971    338.91881    1886.0756   0.61408246   0.51000531     1.223511  -0.18836489   0.23268817   0.38345015  0.082231882 
   58650        58589     272.6395     6239.176    1886.5014   0.61394386   0.41700107    1.2248502  -0.20057339   0.22344928   0.31178716  0.082338021 
   58700        58639    277.58189   -5558.7958    1885.5362   0.61425813   0.40623937    1.2287331  -0.19382687   0.21139036   0.32020499   0.06847089 
   58750        58689    275.85627    180.57506    1883.4195   0.61494849   0.41636273    1.2337434  -0.19315666   0.25553459    0.2878259  0.066158893 
   58800        58739    283.67384     -535.031    1881.3784   0.61561564   0.39327412    1.2338188  -0.21203865    0.2397014   0.30024043   0.06537094 
   58850        58789    272.59794   -1123.8224    1877.5111   0.61688368   0.42779476    1.2355207  -0.20061147   0.22756646   0.33305746  0.067782313 
   58900        58839    252.63725    4216.5312    1872.3039   0.61859935   0.48989363    1.2384748  -0.20728703   0.29029737   0.33039639  0.076486902 
   58950        58889    230.94662   -474.73669    1866.3634   0.62056832   0.55670313    1.2410135    -0.214025   0.29677844   0.39257198  0.081377696 
   59000        58939    244.56334    2869.3896    1860.6923    0.6224597    0.5168294     1.241487  -0.19069158   0.28752067   0.36134659  0.058653709 
   59050        58989    252.53396    5834.9316    1859.1659   0.62297074   0.49496413    1.2432392  -0.20779719   0.28734616   0.34040571  0.075009441 
   59100        59039    252.88401   -2036.5087     1861.137   0.62231098   0.49482505    1.2441373  -0.22795907   0.25895394   0.39812049   0.06570969 
   59150        59089    263.79333    3282.1365    1860.3783   0.62256477   0.45725465     1.238892   -0.2133161    0.2453532   0.35895706  0.066260501 
   59200        59139     238.1815   -1401.3558    1860.0235   0.62268351   0.53068518     1.236433   -0.2014645   0.25143318   0.39738628  0.083330211 
   59250        59189     273.0567   -3769.1622    1860.5952   0.62249219   0.43028708    1.2393724  -0.20612724   0.26533124   0.30297646  0.068106617 
   59300        59239    276.41248    4406.5407    1863.3036   0.62158736   0.41966745    1.2386962  -0.21095192   0.23901919   0.32165412  0.069946056 
   59350        59289    271.83139   -4689.2497    1863.6326   0.62147762   0.42996818    1.2354228  -0.22190279   0.25470132   0.32910263   0.06806702 
   59400        59339    250.15153    3473.9636    1859.8845   0.62273007   0.49016993    1.2313857  -0.19059545    0.2120545   0.38834148  0.080369396 
   59450        59389    253.04686     -2085.26    1857.2856   0.62360144    0.4842134    1.2340082  -0.20122453   0.23447832   0.37368954  0.077270071 
   59500        59439    251.05233    4533.6407    1855.9999   0.62403343   0.49441416    1.2382991  -0.18993962   0.23456961   0.36510949  0.084674686 
   59550        59489    250.84836    3349.5547    1858.4878   0.62319805   0.50112711    1.2444076  -0.20700441   0.29277224   0.34564965  0.069709628 
   59600        59539    240.75308    -321.9796    1861.9946   0.62202435   0.53199587    1.2453634   -0.2256999   0.30721499   0.36635305  0.084127721 
   59650        59589    242.07775   -1197.5391    1860.6353   0.62247876   0.52427721    1.2415698  -0.21386526   0.31185322   0.36339855  0.062890699 
   59700        59639     271.2966    870.38445    1860.7164   0.62245162   0.43296191    1.2368319  -0.21594804   0.28026953   0.30230605  0.066334373 
   59750        59689    277.24998   -741.17785    1860.3824   0.62256338   0.41149901    1.2330093  -0.20107826   0.23150154   0.29910676  0.081968969 
   59800        59739    264.40747   -789.08734    1858.7429   0.62311253   0.44655052    1.2300076  -0.20559849   0.24669025   0.33325472   0.07220405 
   59850        59789    284.26158   -3756.2876    1854.7117   0.62446683   0.38519277    1.2274789  -0.21564796   0.22573222   0.31269803  0.062410485 
   59900        59839    280.73897   -3305.4168    1847.2613   0.62698546   0.39210135    1.2239498  -0.22170132   0.23601087   0.30711207  0.070679736 
   59950        59889    274.22013    3814.7866    1838.2841   0.63004731   0.40798928    1.2205219  -0.20276548   0.23823783   0.30125636  0.071260576 
   60000        59939    250.47661    1202.2996    1830.5123   0.63272231   0.47973818    1.2219172  -0.21102218   0.25675126   0.35848284  0.075526255 
   60050        59989     254.8962    5828.2393    1823.4673   0.63516685   0.46789967    1.2231742   -0.2153318   0.26423694   0.34485911  0.074135419 
   60100        60039    232.97537   -3379.5578    1819.2277   0.63664706   0.53488745    1.2252091  -0.22368153   0.30418732   0.37955786  0.074823805 
   60150        60089    246.03039    4196.2032    1813.5411   0.63864336    0.4954421    1.2244467    -0.217715   0.27724197   0.35456556  0.081349572 
   60200        60139    254.28996   -1153.1235    1809.7936   0.63996579   0.47123476     1.224713  -0.21844828    0.2744155   0.33691931  0.078348223 
   60250        60189    261.03476    56.785844    1805.6312   0.64144104   0.45097534    1.2244389  -0.22838983   0.24250079   0.35557928  0.081285106 
   60300        60239    269.75297   -687.29372    1798.7007   0.64391256   0.42396475    1.2232609  -0.21229507   0.23820623   0.30594821  0.092105384 
   60350        60289    243.77807   -511.81437    1793.0473    0.6459428   0.50070747    1.2230383  -0.19632894   0.23373408   0.39422191  0.069080425 
   60400        60339    272.72999    4050.4457    1789.5643   0.64719999    0.4119875    1.2201048  -0.20948296   0.23460442   0.32299935  0.063866694 
   60450        60389    280.22325    1545.6909    1791.6625   0.64644205   0.38655481    1.2168751  -0.20498378    0.2196217   0.29764204  0.074274854 
   60500        60439     272.7757   -2527.3482    1797.8299   0.64422445   0.40829776    1.2165505  -0.24764571   0.22420723   0.35230627  0.079429968 
   60550        60489    269.33962    1872.4347    1798.2687   0.64406724   0.41378311    1.2118545  -0.23292241   0.21134903   0.34616312  0.089193378 
   60600        60539    252.26161   -284.92061    1795.5328   0.64504863   0.46320229    1.2106704  -0.22605895   0.21920538   0.39882696  0.071228899 
   60650        60589    258.59188     4015.845    1792.3735   0.64618562   0.44462823    1.2108533  -0.20746318   0.23998647   0.33648347  0.075621473 
   60700        60639    253.02893    46.394359    1791.5985   0.64646513   0.46371838    1.2134601  -0.22139421   0.25233645   0.35122809  0.081548046 
   60750        60689     241.8362    -3202.739    1792.3516   0.64619352   0.50036646    1.2169434  -0.21059336   0.24116833   0.38514464  0.084646852 
   60800        60739    265.90416    6621.0274    1792.0441   0.64630438   0.43057768    1.2184696  -0.19214386   0.25743993   0.30636495  0.058916661 
   60850        60789    239.59221    -6697.824     1795.712   0.64498425   0.50949887    1.2194267  -0.24214685   0.28423833   0.38263804  0.084769356 
   60900        60839    251.08577    7945.1327    1794.8938   0.64527827   0.47132926    1.2153132  -0.20289274    0.2586928   0.33766373  0.077865478 
   60950        60889    267.58334   -3791.6539     1799.338   0.64368449   0.42220376    1.2150712  -0.21514299   0.26438055   0.30167639  0.071289814 
   61000        60939    271.29921    1629.7413    1806.6518   0.64107869   0.40837307    1.2122508  -0.21098125   0.23719812   0.31305355  0.069102646 
   61050        60989    264.84857    2718.9924    1813.4745   0.63866679    0.4272884    1.2120525  -0.21655387   0.25437161   0.31644758  0.073023085 
   61100        61039    258.58681   -1355.5102    1818.4839   0.63690748   0.44385609    1.2100662  -0.22710486   0.25794302   0.34037529  0.072642641 
   61150        61089    243.42852    1509.5802    1821.7999   0.63574819   0.48976908    1.2110641    -0.217834   0.28030035   0.35314146  0.074161272 
   61200        61139    239.95985   -339.09315     1826.443     0.634132   0.50146841    1.2124855  -0.19996701   0.26455727   0.35881424  0.078063921 
   61250        61189    268.16947   -979.89771    1834.1052   0.63148286   0.41947134    1.2140755  -0.21767655   0.20749302   0.34869434   0.08096053 
   61300        61239    259.18432    2296.5997    1838.9375   0.62982344   0.44669255    1.2146731   -0.2239594   0.21717249   0.36123289  0.092246571 
   61350        61289    248.14732    1367.9315    1841.9484   0.62879391   0.48179919    1.2170764  -0.16655377   0.21631047   0.35710109  0.074941394 
   61400        61339     255.0824    1648.9192    1849.1775   0.62633576   0.46498662    1.2208129  -0.21258161   0.22430815   0.39551802  0.057742064 
   61450        61389    257.97963     897.7903    1855.9438   0.62405229   0.45989456    1.2243055  -0.19103616   0.24195992   0.31503052  0.093940283 
   61500        61439    242.17613   -1705.6515    1862.4745   0.62186405   0.51156328    1.2291474  -0.20022504   0.24705057   0.36883735  0.095900406 
   61550        61489    250.02928    5722.5725    1866.3755   0.62056428   0.49315464    1.2340082  -0.18368734   0.26902715    0.3266483  0.081166522 
   61600        61539    250.39599   -921.84357    1871.8096   0.61876269   0.49228258    1.2342227  -0.18247041   0.24409781   0.35907017  0.071584997 
   61650        61589    265.49566     1696.676    1877.1617   0.61699849   0.44811152     1.234793  -0.21848835   0.22465927   0.35647786  0.085462743 
   61700        61639    269.32383   -5296.5595     1878.811   0.61645687   0.43705694    1.2350815  -0.21322185   0.24901913   0.32884404  0.072415623 
   61750        61689     267.2713    476.79895    1877.8971    0.6167569   0.44120274    1.2331456  -0.21247905   0.23123566   0.34981975  0.072626387 
   61800        61739    262.19109    -2006.953    1873.7169   0.61813286   0.45315272    1.2300425   -0.2225344   0.21386878   0.39446782   0.06735051 
   61850        61789    259.79421    5254.7083    1868.9669   0.61970383   0.45774671    1.2275344  -0.19940257   0.19666555   0.39293679  0.067546927 
   61900        61839     260.5177    1145.4509    1865.9763   0.62069705   0.45504008    1.2269715  -0.21212009   0.21031348   0.38663858  0.070208105 
   61950        61889    257.17776    344.11731    1861.9602   0.62203585   0.46838592    1.2304209  -0.20059099   0.21589357   0.37092435  0.082158994 
   62000        61939    277.73457    532.67235    1860.7244   0.62244897   0.40973698    1.2326831  -0.23684696   0.20866647   0.37816876  0.059748707 
   62050        61989    265.14646    5237.5621    1856.4685    0.6238759     0.444818    1.2304648  -0.19465941   0.19821549    0.3769931  0.064268819 
   62100        62039    253.10301    183.79248    1854.9411   0.62438963   0.48019413    1.2301553  -0.19525673   0.23800768   0.37237078  0.065072393 
   62150        62089    269.79062     28.95819    1855.6554   0.62414926   0.43073372    1.2301414  -0.22190439   0.26146937   0.33580663  0.055362113 
   62200        62139    251.55605   -3455.3712    1856.8508   0.62374747   0.48546768    1.2308451  -0.18052955    0.2599233   0.34263082  0.063443113 
   62250        62189    266.82587     3600.389    1860.7619   0.62243643   0.43863194    1.2292549  -0.20670167   0.24831368   0.31971825  0.077301675 
   62300        62239    248.09032    297.15018    1865.7879   0.62075972   0.49578318    1.2308914  -0.19292719   0.26126556   0.37212312  0.055321689 
   62350        62289    245.34303    928.95567    1872.9915   0.61837225   0.50601257    1.2329804  -0.18327022   0.22339214   0.39238294  0.073507707 
   62400        62339    252.90301    1444.8028    1881.4466   0.61559334   0.48754442     1.236913  -0.18831181   0.24029812   0.35821661  0.077341502 
   62450        62389    252.99928   -128.13394    1889.6707   0.61291418   0.48965522    1.2393091  -0.18782666   0.25454004   0.35541778  0.067524055 
   62500        62439    277.26841    5752.7051    1899.7136   0.60967398   0.42092905     1.242494  -0.20136888   0.21392953   0.35299962  0.055368789 
   62550        62489    245.12545    1699.1739    1909.4674   0.60655971   0.51746672    1.2437899  -0.20133383   0.22468914   0.41952932  0.074582087 
   62600        62539    235.17903     3942.664    1917.1819   0.60411899   0.54660658    1.2434578  -0.17418832   0.23490813   0.41259442   0.07329236 
   62650        62589    267.16194   -769.10471    1926.3177   0.60125388   0.45460696    1.2462257  -0.20155333   0.23222717   0.35082161  0.073111518 
   62700        62639    267.47198    1416.8536     1933.607   0.59898727   0.45396554     1.246503  -0.19494587   0.21642761   0.37135932  0.061124486 
   62750        62689    267.22744   -2222.7823    1940.0802   0.59698872   0.45319503    1.2450079  -0.18683983   0.21694666   0.35841809  0.064670118 
   62800        62739    257.08996   -1527.8189    1946.5912   0.59499188   0.48164733    1.2434222  -0.19361101   0.24480788   0.35116043  0.079290026 
   62850        62789    251.31497   -1058.6207    1949.6527    0.5940576   0.50010544    1.2447686  -0.18028482   0.22840715   0.37746857  0.074514542 
   62900        62839    264.49122   -303.92294    1952.8376   0.59308872   0.46019817    1.2439034  -0.19958287   0.21454949   0.37232294  0.072908619 
   62950        62889    259.97868   -1325.0679    1951.7397   0.59342236   0.47307991    1.2434142  -0.18888431    0.2243866    0.3621849   0.07539271 
   63000        62939    258.42441    3639.9862    1952.3869   0.59322564   0.48030337    1.2460322  -0.18428359   0.23214192   0.35574228  0.076702755 
   63050        62989     253.8133    2481.8542    1953.7273   0.59281864   0.49628372    1.2483496  -0.18066183   0.23396347    0.3891514  0.053830683 
   63100        63039    241.15418    176.80065     1952.455   0.59320496   0.53301587    1.2475719    -0.174804   0.24790052   0.37810757  0.081811794 
   63150        63089    257.15529    1921.5643    1951.4389   0.59351381   0.48549764     1.247466  -0.17349617   0.25152915   0.33851608  0.068948582 
   63200        63139    251.97652   -2218.3019     1950.837   0.59369693    0.4997708    1.2463941  -0.17428228   0.22908124   0.34698993  0.097981914 
   63250        63189     265.9387    2640.8465    1950.6647   0.59374938   0.46030006    1.2482943  -0.18292809   0.22231999   0.33579531  0.085112854 
   63300        63239    254.57417   -1043.3684    1952.9406   0.59305745   0.49748102    1.2518014   -0.1926203   0.25758668    0.3571166   0.07539804 
   63350        63289    263.05467   -1154.5159    1955.3739   0.59231945   0.47427343    1.2537221  -0.17822871   0.23536152   0.33251633   0.08462429 
   63400        63339    293.76567    3438.9851     1961.316   0.59052491   0.38482778    1.2552752  -0.19501164   0.19860946   0.28823815  0.092991816 
   63450        63389    274.04866   -1737.8818    1968.8069   0.58827811   0.44624718    1.2582718  -0.19323368   0.21569716   0.33786245  0.085921251 
   63500        63439    270.73621     1987.531    1972.4702   0.58718555   0.45467468    1.2568842  -0.19042048   0.22966701   0.33943569  0.075992454 
   63550        63489    247.47856   -199.32546    1974.1207   0.58669461   0.52106344     1.254359  -0.17816305    0.2464449   0.37763149  0.075150095 
   63600        63539    248.86141   -390.53862    1973.5698   0.58685837   0.51546374    1.2528568  -0.17424748    0.2333468    0.3833478  0.073016626 
   63650        63589     256.7427    5006.8904    1971.3237   0.58752705   0.49177049    1.2525163  -0.18198113   0.21610344   0.36712259  0.090525582 
   63700        63639    243.04333    -2827.006    1971.5362   0.58746371   0.53692591    1.2570796  -0.16358523   0.28528353   0.35272525  0.062502363 
   63750        63689    265.54463      4707.01    1975.1945   0.58637565   0.47239709    1.2592237  -0.15689845    0.2222772   0.34345517   0.06356316 
   63800        63739    253.27216   -2193.1036    1982.9609   0.58407908    0.5089336     1.259396  -0.18094287   0.25011717   0.34092984  0.098829448 
   63850        63789    242.37598    2089.5568    1987.5697   0.58272471   0.54482837    1.2630047  -0.15683869   0.22532122   0.38991702  0.086428815 
   63900        63839    270.64102    -3770.922    1990.2779   0.58193178   0.46360614    1.2655336  -0.18619545   0.23125401   0.32585515  0.092692433 
   63950        63889    253.54111    2368.1846    1989.6415   0.58211791   0.51840044    1.2696598  -0.16364785   0.22456324   0.37931971  0.078165339 
   64000        63939    254.18685   -1777.8368    1989.0976   0.58227711   0.51650458    1.2696773  -0.16145965   0.21441425   0.38827364  0.075276334 
   64050        63989    251.54938    4816.6189    1987.9698   0.58260741    0.5240988    1.2694565  -0.15072272   0.21513512   0.39116909  0.068517305 
   64100        64039    277.33301   -2996.3094    1989.5754   0.58213727   0.44915947    1.2709158  -0.18408648   0.22072685   0.34351816  0.069000934 
   64150        64089    279.25906     2751.194    1989.5796   0.58213602   0.43581449    1.2632778  -0.19768071   0.20410266   0.36300727  0.066385267 
   64200        64139    277.01122   -4927.0986    1985.3571   0.58337412   0.43359043    1.2543933   -0.1694112   0.22469309   0.29552806  0.082780479 
   64250        64189    261.30285     4377.656    1979.5562   0.58508365   0.47810945    1.2523673  -0.12694396   0.22077393   0.30608382  0.078195661 
   64300        64239    243.77358   -2273.2507    1979.2227   0.58518224   0.53386576    1.2561833  -0.15563395   0.27518688   0.31661438   0.09769845 
   64350        64289    270.55601    -495.1851    1979.6993   0.58504136   0.45569017    1.2573658   -0.1833106   0.25619739   0.30850136  0.074302018 
   64400        64339    285.62098    933.96334    1981.5839   0.58448496   0.40872021    1.2550344   -0.1894462    0.2182516   0.30578163  0.074133174 
   64450        64389    275.50126   -3845.1305    1981.9779   0.58436875   0.43595923    1.2522879  -0.17410342   0.23219248   0.29818063  0.079689549 
   64500        64439    266.47147    4133.1779    1979.9679     0.584962    0.4605491     1.250122  -0.18281423   0.24562546   0.32289096  0.074846919 
   64550        64489    266.88188    319.55961    1976.4053   0.58601644   0.45657758    1.2473665  -0.16453181   0.22091551   0.32125315  0.078940729 
   64600        64539    275.98099    3263.0587    1973.1025   0.58699736     0.429218    1.2469682   -0.1709327   0.19704601     0.341702  0.061402686 
   64650        64589     274.0619   -1038.4765    1970.6857   0.58771725    0.4330168    1.2450806  -0.17795555   0.23484932   0.30766216  0.068460866 
   64700        64639    260.05319   -3277.4231    1969.9757   0.58792908   0.47649565    1.2470507   -0.1754719   0.22311862   0.34088399  0.087964932 
   64750        64689    257.18272   -3211.6753    1968.3104   0.58842648   0.48564031      1.24769  -0.15810588   0.24144632   0.33859179  0.063708075 
   64800        64739    270.01407    4701.8658    1970.3303   0.58782327   0.44823943    1.2483093  -0.17640957   0.20969279   0.33770073  0.077255486 
   64850        64789    258.04967   -3668.2764    1973.5981   0.58684995   0.48308135    1.2476999  -0.18150191   0.23463659   0.35052358  0.079423079 
   64900        64839    269.38059     588.0953    1977.1035   0.58580949   0.44900187    1.2471946  -0.16783611   0.22847736   0.32859531  0.059765304 
   64950        64889    268.51837   -2983.4109     1981.844   0.58440824   0.45087454    1.2465125  -0.18299838   0.21526061   0.33394766  0.084664641 
   65000        64939    260.59738    3527.7463    1983.3576   0.58396226   0.47442404    1.2465916  -0.14760474   0.23148171   0.32012089  0.070426179 
   65050        64989    265.56525    2743.5895    1985.7455   0.58326002   0.46049542    1.2473831   -0.1843878   0.23613933   0.35078833  0.057955559 
   65100        65039    270.90758    2092.9661    1983.1284   0.58402975   0.43975147    1.2424688  -0.16465546   0.22882743   0.31064865  0.064930857 
   65150        65089    246.49778   -3988.0635    1978.7608   0.58531883   0.51379624    1.2441857  -0.17240047   0.24076124   0.37517071  0.070264768 
   65200        65139    247.49491    1650.7112    1974.2825   0.58664652   0.50999943    1.2433435   -0.1751716    0.2346177    0.3706304  0.079922922 
   65250        65189    262.57694   -3642.8319    1967.8358   0.58856841   0.46350795    1.2415411  -0.17542549      0.24316   0.32245629  0.073317151 
   65300        65239    245.56988    3953.8464    1962.9215   0.59004191   0.51437423    1.2420143  -0.18392465   0.24569784   0.36902885  0.083572193 
   65350        65289    254.15734    296.02121    1958.4956   0.59137533   0.48958097    1.2426662  -0.16746161   0.23310066   0.34198875  0.081953165 
   65400        65339     242.5885   -5046.6224     1956.662   0.59192951   0.52592244    1.2447284  -0.17316554   0.23899953   0.37309503  0.086993424 
   65450        65389    273.49672    5082.4706    1956.0881   0.59210318    0.4352252    1.2456144  -0.17921881   0.21401824    0.3273456   0.07308018 
   65500        65439    262.48959    586.79925    1957.5695    0.5916551   0.46715043    1.2449247  -0.15646653   0.22760776   0.32099149  0.075017706 
   65550        65489    271.77613    4202.3511    1962.1662   0.59026905   0.44277285    1.2480638  -0.17932804   0.19877837   0.33919777  0.084124758 
   65600        65539    262.30589   -2520.9356    1968.1879   0.58846312   0.47078023    1.2480102  -0.18256824   0.19797934   0.37596527   0.07940386 
   65650        65589    252.13936    -2524.057    1970.8597   0.58766535   0.50435739    1.2514633  -0.17451218   0.21524889   0.38408449   0.07953619 
   65700        65639    251.74544    383.23683     1970.983    0.5876286   0.50562448    1.2515631  -0.20613909   0.23432138   0.39635493  0.081087254 
   65750        65689    270.19118     2699.989    1965.4794   0.58927402   0.44682268    1.2474173  -0.17263732   0.23337398   0.33023937  0.055846658 
   65800        65739    249.29418   -6.2964894    1962.1431   0.59027599   0.50846145    1.2471368  -0.18597227   0.22170265   0.38487945  0.087851617 
   65850        65789    243.54838    4167.4773    1958.8974   0.59125403   0.52791413    1.2495643  -0.15507995   0.20091641   0.40518115  0.076896509 
   65900        65839    246.93581   -3534.7174    1959.6438   0.59102884   0.51933155    1.2510189  -0.17208158    0.2386719   0.37835307   0.07438815 
   65950        65889     253.0897    4032.6132    1961.1931   0.59056192   0.50232575    1.2522475  -0.15796747   0.22053735   0.35291073  0.086845143 
   66000        65939    270.73712    2529.3486    1963.1801   0.58996419   0.45224777      1.25446  -0.17576974   0.16941184   0.39441769  0.064187979 
   66050        65989     251.5763   -2852.2163    1968.5618   0.58835134    0.5135187    1.2589562  -0.18290871   0.21689593   0.38648114   0.09305034 
   66100        66039    248.41734    3074.2522    1973.3396   0.58692684   0.52696543    1.2630427  -0.19020364    0.2303909   0.40422683  0.082551339 
   66150        66089    239.54491    146.24491    1975.6084   0.58625281   0.55471227    1.2644999  -0.13773126   0.24532832   0.36505458  0.082060629 
   66200        66139    258.64868    3251.1651    1981.3607    0.5845508   0.50179851    1.2681919  -0.17999015    0.2332791   0.36270779  0.085801769 
   66250        66189    264.39681    2770.9394    1985.7766   0.58325088   0.48525582    1.2686813   -0.1406914   0.20449941   0.34840682  0.073040991 
   66300        66239     262.3348   -70.103076    1990.9685   0.58172994    0.4915802    1.2688958  -0.18054615   0.19548095    0.3799533    0.0966921 
   66350        66289    249.75345   -2036.4828     1991.009   0.58171809   0.53203128    1.2720675  -0.17227398   0.21818948   0.40470369  0.081412087 
   66400        66339    246.96375   -678.29683    1986.5442   0.58302553   0.54099971    1.2727699   -0.1687734    0.2414965   0.39136083  0.076915786 
   66450        66389     239.4105   -429.63828    1979.3158   0.58515472   0.56312308    1.2725125   -0.1802994   0.23953606   0.41350049  0.090385936 
   66500        66439    248.43925    3346.2336    1972.3554    0.5872197   0.53692504    1.2730672  -0.15520306   0.22201795    0.3816996   0.08841055 
   66550        66489    261.43434   -3233.1065    1968.4743   0.58837749   0.50066048     1.275308  -0.17447779    0.2021628    0.3683697   0.10460577 
   66600        66539    262.81936     2944.468    1963.5041   0.58986685   0.49613723    1.2748886   -0.1788868   0.21437323   0.35445774   0.10619306 
   66650        66589     251.2495   -4899.7498    1956.6664   0.59192817   0.53154938    1.2760185  -0.18735912   0.27536429   0.35117161  0.092372599 
   66700        66639    268.71975     7167.042    1950.1993   0.59389107   0.47816511    1.2743998  -0.16699206   0.21380877    0.3599817  0.071366699 
   66750        66689    261.39696    3456.0382    1946.8016   0.59492758   0.49884004    1.2733768  -0.17148268   0.20369361   0.40707826  0.059550863 
   66800        66739    265.64854    912.89277    1948.3264   0.59446197   0.48175757     1.268892  -0.18440111   0.22956383   0.36286693  0.073727919 
   66850        66789     260.6253   -1474.3529    1950.1904   0.59389378   0.49449491    1.2667452  -0.16968015   0.22236671   0.35534051  0.086467834 
   66900        66839    275.08402    2959.8173    1954.1935   0.59267723   0.45270116    1.2677936   -0.1848928   0.20296295   0.34586032  0.088770676 
   66950        66889    244.38915   -2724.8128    1957.8718   0.59156374   0.54305944    1.2672009  -0.17008361   0.18725368   0.44530978  0.080579592 
   67000        66939    248.00303    4487.0527    1961.0732   0.59059804   0.53278582    1.2676355  -0.16802853   0.21453563   0.41491574  0.071362981 
   67050        66989    257.02384   -3261.2498    1964.2559   0.58964109   0.50190696    1.2634858  -0.17543492   0.21736282   0.39011347   0.06986558 
   67100        67039    265.54785    2186.9421    1966.1723   0.58906636   0.47738078    1.2642169  -0.17212713   0.21885557   0.37264216  0.058010176 
   67150        67089    265.07647    2720.2838    1967.8884   0.58855267   0.47816343    1.2636028  -0.19055308   0.23983907   0.35250419  0.076373258 
   67200        67139    251.55757   -2015.1046    1966.7156   0.58890364   0.51573501     1.261117  -0.18707466   0.26112763    0.3782721  0.063409935 
   67250        67189    249.22198   -596.27168    1963.0855   0.58999263   0.52127233    1.2597338  -0.17411362   0.24142597    0.3800117  0.073948282 
   67300        67239    249.32777   -244.88688    1960.5751   0.59074809   0.52075077    1.2595257  -0.18578582    0.2390829   0.37904221  0.088411494 
   67350        67289    270.49572   -1043.3889    1957.7787   0.59159189   0.45628412    1.2577811  -0.18629667   0.22991078   0.33495944  0.077710572 
   67400        67339    271.53872    2544.5256    1954.4862   0.59258848   0.44985674    1.2544442   -0.1853909   0.20740592    0.3564492  0.071392524 
   67450        67389    237.39066    3670.9094    1950.9803   0.59365333   0.54815396    1.2515584  -0.14386794   0.22901121   0.38704824  0.075962456 
   67500        67439    249.94073   -80.775816    1948.9828   0.59426177   0.51442327    1.2550144  -0.17582027   0.21232187   0.38841445  0.089507224 
   67550        67489    267.68179    327.06208    1946.8793   0.59490383   0.45913819    1.2522973  -0.18806911   0.21630978   0.35761687  0.073280643 
   67600        67539    257.35019   -2139.5304     1942.714   0.59617934   0.48833941    1.2508853  -0.17673358   0.23803593   0.35441102  0.072626049 
   67650        67589    255.00747    1971.0386    1940.8038   0.59676613   0.49552923    1.2511335  -0.16969823   0.21574895   0.37726933  0.072209171 
   67700        67639    272.79941    1415.3817    1942.6187   0.59620859   0.44320592    1.2515289  -0.18633314   0.18468082   0.35483367  0.090024578 
   67750        67689     271.6582   -4070.4959    1943.5558   0.59592112   0.44726197    1.2522034  -0.18805086   0.20050905   0.35423241  0.080571377 
   67800        67739    269.02333    2140.9449    1943.4459   0.59595484   0.45417809    1.2513123  -0.19056962   0.19432334   0.37086525  0.079559109 
   67850        67789    268.78953    -3025.898    1944.5131   0.59562777   0.45277272    1.2492141  -0.19309084   0.18422663   0.37217557  0.089461362 
   67900        67839    266.37937     6450.194    1944.9913    0.5954813   0.46093302     1.250233  -0.16865594   0.19265023   0.37056195  0.066376786 
   67950        67889     267.7704   -987.02676    1949.4173   0.59412933   0.45422769    1.2476494   -0.1933656   0.23690883   0.34461467  0.066069778 
   68000        67939    265.23761     1558.603    1953.6386   0.59284556   0.45910414     1.245021  -0.18483259   0.21944714   0.35283905  0.071650545 
   68050        67989    256.43605   -586.11469    1960.0734   0.59089929   0.48667972    1.2465169  -0.16476064    0.2211494   0.33942706  0.090863892 
   68100        68039    270.86464    110.36507    1968.7314   0.58830066   0.44742263    1.2500127  -0.17705409   0.21283327   0.32967069  0.081972763 
   68150        68089    266.09519   -652.75761     1976.716   0.58592433   0.46395549    1.2524134  -0.17242177   0.24554626   0.32551421  0.065316792 
   68200        68139    244.80363    5550.2756    1987.5824   0.58272099   0.52817103    1.2535406  -0.13489771    0.2488151    0.3477631  0.066490538 
   68250        68189      250.645   -3760.3931    2002.5385    0.5783689   0.51271061    1.2553886  -0.17095511   0.21352824   0.40082719  0.069310299 
   68300        68239    271.33971    1081.1009    2015.8295   0.57455554   0.45314951    1.2571473  -0.18693191    0.2066448   0.36845394  0.064982678 
   68350        68289    260.22181   -333.71777    2025.8204   0.57172195   0.48613966    1.2571944  -0.16504072   0.21800201   0.35660046  0.076577901 
   68400        68339    253.33156    874.04913    2032.2498   0.56991319   0.50989341    1.2605318  -0.16956908   0.22721405   0.38936463  0.062883809 
   68450        68389     240.5538    3368.8208    2038.1034   0.56827635   0.55069521    1.2634723  -0.15218796   0.23587868   0.38448252  0.082521983 
   68500        68439    234.64724    -6232.624    2041.5154   0.56732658   0.57327337    1.2685489  -0.14919608   0.24130545   0.41662814  0.064535858 
   68550        68489    262.89775    6993.4573    2043.8349   0.56668274   0.49193286    1.2709166  -0.16263728   0.21588408   0.35539411  0.083291947 
   68600        68539    250.22284   -5529.7856    2043.6804   0.56672558   0.53194931    1.2733764  -0.17150492   0.23376122   0.38307914  0.086613865 
   68650        68589    248.57362    7039.3823    2037.7652   0.56837067   0.53909231    1.2756326  -0.14317423   0.19885319   0.37301809   0.11039527 
   68700        68639     258.6218   -3765.3057    2033.7416   0.56949515   0.51343765    1.2797514  -0.18822617   0.20206427   0.41083263  0.088766914 
   68750        68689    254.91476   -1100.2828    2026.7803   0.57145116   0.52750998    1.2828395  -0.15620379   0.21445719   0.37785489  0.091401694 
   68800        68739    257.76298    3161.6664      2021.53   0.57293535   0.51937742    1.2831464  -0.18255048    0.2070014   0.40219642  0.092730085 
   68850        68789    266.95151   -350.38661    2015.2733   0.57471409   0.49114265    1.2821379  -0.16082909   0.19123988   0.38873903  0.071992842 
   68900        68839    266.35707     833.7232    2011.4332    0.5758113   0.49692124    1.2861551  -0.16280271   0.20974093   0.38259893  0.067384091 
   68950        68889      253.431    3203.1844    2010.7296   0.57601279   0.53672528    1.2876584  -0.16484045   0.23021703   0.38856402  0.082784678 
   69000        68939    238.36908   -5733.3132    2010.6877   0.57602479   0.58233694    1.2886405  -0.16290748   0.27941797   0.40362667  0.062199784 
   69050        68989    248.38864    3168.3235    2007.4101   0.57696531   0.54885778      1.28485   -0.1445889   0.23815368   0.35765758  0.097635419 
   69100        69039    251.66306    200.35336    2004.2897   0.57786356   0.53930631    1.2850009  -0.18163348   0.25616896   0.37561802  0.089152808 
   69150        69089    261.12415   -5031.1189    1995.1338   0.58051545   0.50794567    1.2816741  -0.17874654   0.24192237   0.36026939  0.084500453 
   69200        69139    260.70271    9134.3241    1986.0042   0.58318405   0.50372701    1.2762066  -0.15557215   0.22934989    0.3633584  0.066590862 
   69250        69189    253.73561   -9748.2469    1980.0636   0.58493373   0.52209422    1.2739299  -0.18807027   0.23669755   0.38362057  0.089846365 
   69300        69239     276.4979    8042.6472    1974.6866   0.58652647   0.45034393    1.2696258  -0.18081118   0.18799689   0.35825501  0.084903211 
   69350        69289    276.08252   -3407.3353     1969.887   0.58795554    0.4462996    1.2643506  -0.19791975   0.20149943   0.36199351  0.080726398 
   69400        69339    277.48921     1015.222    1963.4222   0.58989144   0.44137118    1.2635903  -0.18290643   0.21442823   0.33005611  0.079793271 
   69450        69389    246.59012    4738.0979     1958.369   0.59141356   0.53350387    1.2641669  -0.17213381   0.23707811   0.36796644   0.10059313 
   69500        69439    252.00494   -6311.7084    1954.6069   0.59255186   0.51827446     1.264982  -0.19063936   0.23824271   0.35007633   0.12059479 
   69550        69489    275.04903    5697.4516    1951.0158   0.59364255   0.45383342    1.2688222  -0.18525427   0.21079511   0.33501462  0.093277971 
   69600        69539    253.83494   -2112.3031    1947.5705   0.59469271   0.51876951    1.2708995   -0.1986742    0.2431635   0.36715342   0.10712679 
   69650        69589    262.93843   -706.19652    1941.9273   0.59642089   0.49300105    1.2721053  -0.15896119   0.23436046   0.34039645  0.077205322 
   69700        69639    245.37878    4090.1046    1941.6766   0.59649788     0.546481    1.2735548  -0.18752632   0.24635561   0.36416346   0.12348824 
   69750        69689    262.70911   -10370.939    1941.6184   0.59651574   0.49794321    1.2763679  -0.19262339   0.26162489   0.34253653  0.086405175 
   69800        69739    266.02477    10746.821    1940.9893    0.5967091   0.48722072      1.27547  -0.18076094   0.24374208   0.33822165  0.086017923 
   69850        69789    259.18807   -4449.6706    1942.0268   0.59639032   0.50627683    1.2742685  -0.19513516    0.2564947   0.36759471  0.077322572 
   69900        69839    275.71403    4592.6107    1943.4186    0.5959632   0.45082508    1.2677843  -0.17704946   0.20841946   0.33939522  0.080059858 
   69950        69889      266.527    394.53926    1946.4447   0.59503666   0.47370427    1.2634417  -0.21662198    0.2088442   0.39721884  0.084263205 
   70000        69939     268.7672   -3930.0775     1943.975   0.59579263   0.45983403    1.2562093  -0.19767473   0.19980324   0.37957065  0.078134866 
   70050        69989    254.67309    709.43232    1940.2987   0.59692146   0.49893811    1.2535516  -0.19701891   0.23087486   0.37841078  0.086671373 
   70100        70039    256.90298   -1133.3653    1935.9836   0.59825195   0.49030817     1.251529  -0.18082758   0.23464893   0.33787591  0.098610911 
   70150        70089    240.63925   -2373.5956    1931.6642    0.5995897   0.53820358    1.2512338  -0.17393985   0.22363852   0.36972354   0.11878137 
   70200        70139    256.78095    3824.4518     1927.619   0.60084797   0.49515675    1.2560159  -0.18982741   0.22037823    0.3694577  0.095148229 
   70250        70189    245.44888   -2861.1828    1923.7799   0.60204702   0.53142644    1.2587079  -0.18445007   0.24008083   0.39460308  0.081192611 
   70300        70239    249.82331    3503.7089    1920.9326   0.60293941   0.51766892    1.2579122   -0.1817853    0.2350587   0.37597699  0.088418528 
   70350        70289    264.48167    1754.0087    1917.6142    0.6039828   0.47302188    1.2566988  -0.21164267    0.2333436   0.37665124  0.074669704 
   70400        70339    262.67287   -1054.5249    1910.6085   0.60619743   0.47535733    1.2536747  -0.17501998   0.24176062   0.33683341  0.071783282 
   70450        70389    275.41141    3390.5732    1905.4856   0.60782719   0.43561671    1.2516792  -0.21065906    0.2391009    0.3162693   0.09090556 
   70500        70439     265.1427   -4479.4087    1899.8114   0.60964262   0.46930938     1.254945  -0.20188162   0.21176023   0.37529208  0.084138686 
   70550        70489    259.92559    1570.8025    1895.0368   0.61117862   0.48644473    1.2566217  -0.19872912   0.23439888   0.34569046   0.10508451 
   70600        70539    266.08363    3848.2059    1894.1915   0.61145138   0.46667937     1.255103  -0.19548286   0.21520826   0.36037885  0.086575112 
   70650        70589    264.49106    -5897.776    1896.2477   0.61078833   0.46914105    1.2528458  -0.21567118   0.21884786   0.35257979   0.11338457 
   70700        70639     265.2982    6876.3703     1898.755   0.60998179   0.46592658    1.2520229  -0.20866531   0.22060527   0.36570291  0.088283699 
   70750        70689    249.78388    -2418.748    1902.8184   0.60867918   0.51079305    1.2509194  -0.20473955   0.23177414   0.41027205  0.073486417 
   70800        70739    250.98867    5821.7149    1909.6098   0.60651447   0.50389887    1.2475952  -0.18522428    0.2356949   0.35465116  0.098777103 
   70850        70789    252.20837     2301.426    1922.2559   0.60252435   0.50189242    1.2492028  -0.19748802   0.24777389   0.38395943  0.067647112 
   70900        70839    250.76742   -3680.9105    1934.2045   0.59880223   0.50441236    1.2474531  -0.20894414    0.2564691   0.37341468  0.083472719 
   70950        70889     264.2888    5616.8794    1945.1472   0.59543359   0.46324584    1.2463513   -0.1926515   0.24093765     0.352363  0.062596688 
   71000        70939    247.24239   -3272.9901    1953.5164   0.59288264   0.51009907    1.2426949  -0.18993838   0.24618613   0.36663923  0.087212085 
   71050        70989    259.79771    895.82628     1957.852   0.59156973   0.47173532    1.2415334  -0.18583172   0.21732095   0.36687361  0.073372476 
   71100        71039    253.89585    -1933.086    1960.7243   0.59070312   0.48981296    1.2421234  -0.18212627   0.20464921   0.37121222  0.096077806 
   71150        71089    268.34468   -1873.0225    1959.9715      0.59093   0.45103154    1.2461548  -0.20393933   0.23157775   0.33832301   0.08507011 
   71200        71139    251.85828   -1039.4447    1954.4384   0.59260296   0.50017561    1.2464486  -0.17972822   0.22524669   0.36447087  0.090186268 
   71250        71189    249.01001    3007.1761    1948.1088   0.59452838   0.51488102    1.2527144   -0.1919626   0.20240757   0.39501188   0.10942417 
   71300        71239    258.82302   -5212.2335    1939.0741   0.59729845   0.48923309    1.2561431   -0.1803944   0.23082151   0.34948386  0.089322117 
   71350        71289    285.46096    8861.3619    1931.0452   0.59978189   0.41132896    1.2571689  -0.20566787   0.20117178   0.33441114  0.081413911 
   71400        71339     261.5652   -10240.885    1920.6553   0.60302646   0.48015536    1.2551906  -0.22372039   0.24381174   0.38325336  0.076810657 
   71450        71389    249.97716    4969.0202    1905.5281   0.60781363   0.50823617    1.2489353  -0.19609585   0.23792367   0.37396804   0.09244031 
   71500        71439     243.6957   -1856.5358    1893.3602   0.61171981   0.52913618    1.2512229  -0.18494345   0.24785677   0.37483462  0.091388249 
   71550        71489    256.39509    2963.0309    1886.2415   0.61402845   0.49365317     1.253369  -0.19280014   0.22445283   0.38389202  0.078108457 
   71600        71539    248.65086    3704.8264    1885.6237   0.61422963   0.51496399    1.2517332  -0.20736258   0.24364945   0.40060392  0.078073206 
   71650        71589    251.08595   -5444.8238    1885.4695   0.61427988   0.50436423    1.2483488  -0.20094802   0.24241419   0.38304931  0.079848752 
   71700        71639     257.9832    2633.5927    1885.1075   0.61439783   0.48291558    1.2473371  -0.21769764   0.22363261   0.39001248  0.086968126 
   71750        71689    257.57084    3753.5044    1881.8729   0.61545389   0.48134978    1.2445495   -0.2034977   0.23765343   0.37686686  0.070327193 
   71800        71739    264.80874   -2033.7799    1877.8598   0.61676913   0.45727209    1.2419182  -0.21748504   0.22702228   0.37139918   0.07633567 
   71850        71789    237.88662    6093.2749    1873.4852    0.6182093   0.53818774    1.2430618  -0.17516188   0.23706854   0.39177119  0.084509877 
   71900        71839    253.36552   -4865.0851    1874.2934   0.61794271   0.49830192     1.249041  -0.20560898   0.23599529    0.3960896  0.071826011 
   71950        71889    255.41323    401.67294    1874.9253   0.61773445   0.49175771    1.2485643  -0.21118721   0.23608824   0.37629205  0.090564614 
   72000        71939    260.07069    4606.8515    1873.5659   0.61818268   0.47753429    1.2481412  -0.22139867   0.23665682   0.37176665  0.090509495 
   72050        71989    247.73268   -2575.9474    1869.3918   0.61956298   0.51542618    1.2494747  -0.19652677   0.21565224   0.39963616  0.096664544 
   72100        72039    277.04883    5326.6735    1863.4775   0.62152935   0.42954641    1.2504607  -0.22014487    0.2169252   0.34618188  0.086584198 
   72150        72089    261.39322   -8511.2899    1856.2756   0.62394075   0.47824887    1.2527745  -0.20350039   0.25096327   0.34854468  0.082241307 
   72200        72139     244.2825    5838.7867    1850.0676    0.6260344   0.52954687    1.2533723  -0.21265905   0.26473475   0.38885355  0.088617617 
   72250        72189    260.40275    2485.7889    1844.9507   0.62777069   0.48311092    1.2547017  -0.21113194   0.21270189   0.40686976  0.074671215 
   72300        72239    253.88042   -1912.8035    1840.1126   0.62942123   0.50023788    1.2525026  -0.21189867   0.22194766    0.4130175  0.077171391 
   72350        72289    255.10144    2482.2152    1837.0128   0.63048335   0.49505786    1.2509406  -0.20502764   0.21962483   0.41007148  0.070389184 
   72400        72339    262.43291   -893.03055    1835.6236   0.63096048   0.47170303    1.2493093   -0.2200729   0.21941726   0.40417602  0.068182644 
   72450        72389    265.48716    1916.3129    1834.7747   0.63125244   0.46001625    1.2466725  -0.23702889   0.22509389   0.39577164  0.076179609 
   72500        72439    259.12819   -2004.3704    1827.6509   0.63371292   0.47499543    1.2428097  -0.22858989    0.2179694   0.41574178  0.069874133 
   72550        72489     253.5275    1560.2075    1818.4891   0.63690566   0.48921475    1.2404337  -0.23283295    0.2420384   0.42796837  0.052040925 
   72600        72539    238.69598   -2347.9432    1809.9095   0.63992478   0.53115754    1.2384298  -0.22171954    0.2848714   0.37132396  0.096681722 
   72650        72589    243.00429     374.8078    1801.8145   0.64279978    0.5206619    1.2406999  -0.21221855   0.25633781   0.39704276  0.079499878 
   72700        72639    236.14249    858.61777    1795.3333   0.64512032   0.54189036    1.2415964   -0.2292531   0.29897329   0.38824619  0.083923979 
   72750        72689    248.93944    2858.3763    1787.5133   0.64794257   0.50264423    1.2402685   -0.2307943   0.22556418    0.4049105   0.10296386 
   72800        72739    263.70604   -5651.2993    1777.6716   0.65152978    0.4592439    1.2406226  -0.22669553   0.22422497   0.37797254  0.083741912 
   72850        72789    272.26944    3044.8725    1766.6263   0.65560327   0.43220178    1.2389544  -0.22632934   0.20315756    0.3750542  0.080319368 
   72900        72839     262.9942   -553.09934    1757.5749    0.6589796   0.45709594    1.2363654  -0.23544054   0.19167357   0.41502228  0.085840631 
   72950        72889    282.18654    5169.2982    1750.1332   0.66178161   0.39921001    1.2353477  -0.24887292   0.19763771   0.36697827  0.083466945 
   73000        72939    264.93816     3276.243    1744.9244   0.66375711    0.4477497    1.2327793  -0.24404196   0.21014186   0.40647171  0.075178096 
   73050        72989    271.78398   -5784.9551    1739.5284   0.66581606   0.42564346    1.2309576  -0.24884458   0.23632812   0.37328902  0.064870904 
   73100        73039    272.32543    7601.3073    1734.5904    0.6677115   0.41716558    1.2240841  -0.25797553   0.22472192   0.36946183   0.08095736 
   73150        73089    250.24009   -1564.2415    1730.5344    0.6692765   0.48079089    1.2222691  -0.23077553   0.25754324   0.38239727  0.071625906 
   73200        73139    248.22296     4556.198    1732.1075   0.66866864   0.48746915    1.2229705   -0.2450785   0.27989526   0.35541506  0.097237332 
   73250        73189    234.72892   -3291.9899    1736.0866   0.66713608   0.52872426    1.2242418  -0.23373975    0.2954134   0.38557145  0.081479154 
   73300        73239    261.94575    1362.1437    1738.1933    0.6663275   0.44546422    1.2216271   -0.2504932   0.27049257   0.34592211  0.079542744 
   73350        73289    274.33577   -1148.3872      1737.41   0.66662788   0.40435563    1.2172309  -0.25882544   0.24010621   0.35732069  0.065754177 
   73400        73339    266.75238    3555.6816    1734.5021   0.66774549   0.42237817    1.2127834  -0.24455483   0.22090052   0.37376632  0.072266159 
   73450        73389    260.38474   -5314.9954    1734.4615   0.66776114   0.44111381    1.2126513   -0.2385478   0.26245859   0.36504792    0.0521551 
   73500        73439     261.5778    1963.6622    1737.6797   0.66652444   0.43463269    1.2097053  -0.25733305   0.25359271   0.36219357  0.076179466 
   73550        73489    264.42115    3255.1021    1742.1433    0.6648167   0.42701008    1.2105077  -0.22233574   0.22881104   0.35206161  0.068473163 
   73600        73539    254.78456    3290.8997    1749.1716   0.66214544   0.45435954    1.2093033  -0.25363976   0.23127896   0.39221957  0.084500782 
   73650        73589    249.10396    -94.50639    1754.6899   0.66006307    0.4744392     1.212551  -0.21302121   0.20953166   0.41396692  0.063961828 
   73700        73639    257.14717    2632.1289    1760.6107    0.6578433   0.45073962     1.212684  -0.26244019   0.24609041   0.40205972   0.06502968 
   73750        73689    225.91232   -1463.6218    1764.3989    0.6564309   0.54138565     1.210779  -0.23674757   0.27097681   0.42751076  0.079645658 
   73800        73739    241.19828    4145.8196    1768.0705   0.65506777   0.49645888    1.2111456  -0.22685563   0.25060316   0.39186481  0.080846541 
   73850        73789    224.71742    2177.8951     1773.249   0.65315471   0.54934343    1.2151962  -0.22980646   0.24311768   0.45038772  0.085644491 
   73900        73839    241.91207   -97.090462    1779.1622   0.65098392   0.50071082    1.2175125  -0.22129587   0.24317415   0.40377451  0.075058029 
   73950        73889    265.58673    537.86729     1785.278   0.64875383   0.43165863    1.2186099  -0.23369451   0.21165835   0.39128658  0.062408217 
   74000        73939    263.44948    194.24667    1788.8872   0.64744495    0.4361735     1.216792  -0.23268278   0.22878922    0.3767648  0.063302259 
   74050        73989     258.1524   -2525.3943    1790.9772    0.6466894   0.45211146    1.2170343  -0.21705714   0.22456059   0.37170866  0.072899348 
   74100        74039    266.39214    5449.6678    1793.4702   0.64579048   0.42977492    1.2191127  -0.23337458   0.23535423    0.3697056  0.058089671 
   74150        74089    259.99424   -5237.4859    1797.1131   0.64448142   0.45245944    1.2228398  -0.23688192    0.2631354   0.37696975  0.049236207 
   74200        74139    255.78545    3543.1075    1798.8086   0.64387393   0.46351717    1.2214266   -0.2213465   0.23960993   0.37998492  0.065268822 
   74250        74189    254.80838    461.51422    1802.5225   0.64254729   0.46866769     1.223682  -0.23406489   0.26107852   0.38772647  0.053927595 
   74300        74239    265.02036     2152.572    1805.9474   0.64132873   0.43911681    1.2243899  -0.23322536   0.22353247   0.37694477   0.07186492 
   74350        74289    253.70798    2045.8517    1808.3903   0.64046239   0.47462917     1.226383   -0.2365739   0.25443002   0.39628128   0.06049176 
   74400        74339    267.67497    578.75082    1809.2905   0.64014371   0.43137396    1.2245129  -0.22596279   0.25476906   0.33562666  0.066941027 
   74450        74389    264.53881   -6741.3547    1809.1717   0.64018576    0.4413251    1.2251714  -0.23251197    0.2585201   0.35100401  0.064312958 
   74500        74439    249.81925    6146.5867    1806.6923   0.64106432   0.48646469    1.2266959  -0.22400228     0.270689   0.38863061  0.051147351 
   74550        74489    230.13175   -3376.3729    1802.9151   0.64240739   0.54731097    1.2292068  -0.20505872   0.30400704   0.37264573  0.075716918 
   74600        74539    244.84351    3671.7863    1799.8823   0.64348983   0.50714399    1.2326318  -0.24197517   0.28785924   0.37963314  0.081626775 
   74650        74589    261.85687   -4176.8935    1793.6345   0.64573133   0.45574776    1.2316472  -0.25152761   0.27967048   0.34632239  0.081282506 
   74700        74639    254.31802    582.58602    1784.8006   0.64892739   0.47696165     1.230523  -0.22024839   0.24543162   0.39269735  0.059081067 
   74750        74689    267.43673    1603.7547    1777.7311   0.65150798    0.4373908    1.2298238  -0.25310069   0.26244457   0.35878129  0.069265624 
   74800        74739    271.26645   -101.63248    1769.1008   0.65468626   0.42173398    1.2255147  -0.25053777   0.25378511   0.34426489  0.074221747 
   74850        74789    260.40261    961.16154    1759.7984   0.65814698   0.45130215    1.2228926  -0.24899921    0.2487567   0.37914982  0.072394845 
   74900        74839    282.92135   -923.11178    1749.3675   0.66207129   0.37966322    1.2179782  -0.23519029   0.23632439    0.3048338  0.073695313 
   74950        74889    255.84319   -689.81227    1741.4241   0.66509129   0.46291958    1.2210001  -0.23641493   0.28279887   0.35321505  0.063320597 
   75000        74939    277.76603    2808.0588    1737.7174   0.66650995    0.3967389    1.2197783  -0.25108646   0.26543341   0.32344721   0.05894474 
   75050        74989    252.16805   -145.86077    1735.4408   0.66738432    0.4704944    1.2176853  -0.24985556   0.25977217   0.38420019    0.0763776 
   75100        75039    239.11463     1868.619    1735.0083   0.66755067   0.50971298    1.2182257   -0.2356118   0.27590353   0.38184481  0.087576437 
   75150        75089    264.37654   -2667.6745    1736.5783   0.66694716   0.43536963    1.2187351  -0.27344004   0.29734845   0.35319909  0.058262132 
   75200        75139    237.55693    4820.8432    1736.3665   0.66702853   0.51148248    1.2153796  -0.24200147   0.32013601   0.34659319  0.086754749 
   75250        75189     269.5438   -3572.9162    1735.8597   0.66722326   0.41419467    1.2128711  -0.26366213   0.24624873   0.33800995  0.093598121 
   75300        75239    273.00646    4128.0402    1731.1833   0.66902561   0.40142855     1.210365   -0.2520553   0.26324653   0.31937303  0.070864293 
   75350        75289    255.56331    941.92801    1727.8238   0.67032644   0.45170597    1.2089572  -0.23954692   0.24386889   0.37181091  0.075573092 
   75400        75339    257.29387    2346.8592    1726.3304   0.67090631   0.44738486    1.2097639  -0.24726435   0.24117537   0.37496079  0.078513038 
   75450        75389    255.31028   -1928.1657    1727.4622   0.67046676   0.45681748     1.213319  -0.23577796   0.24877507   0.37883302  0.064987348 
   75500        75439    251.02804    9658.4888    1732.3208   0.66858632   0.46744105     1.211254  -0.24315011   0.26208651   0.37154757  0.076957072 
   75550        75489    254.61242   -241.75283    1739.4064   0.66586276   0.45666926     1.211103  -0.24339982    0.2902419   0.35013597  0.059691213 
   75600        75539    275.03776   -1553.7669    1747.3753   0.66282611   0.39478227    1.2097376  -0.26277722    0.2397611   0.36126793  0.056530461 
   75650        75589    259.93504    4430.8125    1752.5834   0.66085641   0.43629369    1.2064987  -0.25008615   0.23499087   0.38244751   0.06894147 
   75700        75639    247.66643   -5006.2018    1756.1145    0.6595276   0.47136854    1.2052208  -0.26048709    0.2770934   0.39718483  0.057577408 
   75750        75689    251.57011    5298.4912    1757.0716   0.65916835   0.45739536    1.2028145  -0.24697122   0.23615221    0.3974259  0.070788475 
   75800        75739    266.71602   -3988.8273    1757.0801   0.65916515   0.41234255      1.20264  -0.25846683   0.24683995   0.34041725  0.083552178 
   75850        75789    256.52993   -4741.1413    1754.3068   0.66020721   0.44406277    1.2041782  -0.25396401   0.25662665   0.35966182  0.081738312 
   75900        75839    258.55346    3900.8147    1747.9537   0.66260677   0.43774487    1.2038561  -0.23801628   0.25505378   0.35680932  0.063898053 
   75950        75889    253.00486   -4002.5765    1741.3644   0.66511406   0.45175153    1.2014219  -0.22445737    0.2363489   0.36359926  0.076260736 
   76000        75939    256.85996    3581.2252    1737.7891   0.66648248   0.44326288    1.2043562  -0.22698963   0.22158131   0.37291681  0.075754382 
   76050        75989    272.40943    4097.2952    1738.2729   0.66629698   0.40128412    1.2084515  -0.23926976   0.22478813   0.33562841  0.080137334 
   76100        76039    262.81425   -216.12636     1743.286   0.66438093   0.43375942    1.2124957  -0.24916846     0.237131   0.37009231  0.075704578 
   76150        76089    257.17656    3095.9165     1750.533   0.66163047   0.45211619    1.2141476  -0.23705489   0.23550593   0.38329185  0.070373302 
   76200        76139    254.98393    1347.8493    1758.8455   0.65850353    0.4598151    1.2153496  -0.26618425   0.26071354   0.39136449  0.073921323 
   76250        76189    252.23026    750.10456    1766.0794   0.65580628   0.46751849    1.2148937  -0.24210401   0.26032893   0.37979847  0.069495094 
   76300        76239    263.98236    3070.2884    1771.4301   0.65382538   0.43154777    1.2137452  -0.23835603   0.26539248   0.31817348  0.086337844 
   76350        76289    272.99045   -5428.4294    1776.2255    0.6520602   0.40449622    1.2133853  -0.25271954   0.27515157   0.31287286  0.069191319 
   76400        76339    267.61966     2930.437    1779.5885   0.65082798    0.4223769    1.2153519  -0.24011188   0.28000699   0.31753884  0.064942946 
   76450        76389    264.58799   -6739.7863    1782.1625   0.64988796   0.43247462    1.2164666  -0.23438729   0.27065183   0.31801977  0.078190304 
   76500        76439    261.17923    3064.6128    1782.9892   0.64958664   0.44360776    1.2174993  -0.22421771   0.23405607   0.35955344  0.074215959 
   76550        76489    268.93914   -3682.0206    1782.8463    0.6496387   0.42379955    1.2206843   -0.2282486   0.25403746   0.32484213  0.073168564 
   76600        76539    271.17572   -201.52015      1782.69   0.64969568   0.42181302    1.2253249   -0.2386885   0.25749093   0.31948131  0.083529282 
   76650        76589    259.56167    443.83563    1781.9764   0.64995584    0.4601193     1.229218  -0.24664773   0.26547682    0.3754558   0.06583441 
   76700        76639    272.83513    660.83588    1778.9507   0.65106132   0.41755942    1.2259882  -0.25173382   0.22599119   0.37739256  0.065909493 
   76750        76689    260.67172    3556.0973    1771.4774   0.65380794   0.45067427    1.2230621  -0.25272842    0.2269735   0.39495258  0.081476613 
   76800        76739    273.91646     2148.624    1762.1626   0.65726395   0.41032172    1.2219546  -0.23243914   0.25972334   0.32432654  0.058710981 
   76850        76789    266.93996    784.30038    1755.6226   0.65971237   0.43137649    1.2223375  -0.26683704   0.25777384   0.37633243  0.064107261 
   76900        76839    245.80168    2590.6033    1747.9524   0.66260728   0.49394658    1.2222735  -0.22713315   0.27548559   0.37650487  0.069089268 
   76950        76889    260.99852   -6331.1556    1744.9967   0.66372962    0.4468398    1.2201959  -0.25957455   0.27888398   0.33647539  0.091054992 
   77000        76939    253.52853    328.86246    1740.7165   0.66536165    0.4724409     1.223663  -0.22878842   0.26395655   0.36301457  0.074258205 
   77050        76989    283.82437   -1925.2946     1737.256     0.666687   0.37882711    1.2198178  -0.26448383   0.26178879   0.31201779  0.069504358 
   77100        77039    273.15925   -6468.6778    1732.2445   0.66861576   0.40558696    1.2149762  -0.27520877   0.27751049    0.3387934  0.064491836 
   77150        77089    263.51128     7243.789    1723.1504   0.67214444   0.42956998    1.2103716   -0.2256703   0.23300152   0.35614283  0.066095931 
   77200        77139    266.85719   -5498.9048    1718.8503   0.67382598   0.41796067    1.2086764  -0.25543773   0.24089484   0.35029453  0.082209025 
   77250        77189    261.15141    6973.1729    1714.5017   0.67553505   0.43403844    1.2078476  -0.25069654   0.25019677   0.35044029  0.084097924 
   77300        77239    280.73869   -294.54844    1712.0311    0.6765099   0.37611125    1.2079588   -0.2478651   0.23117411   0.32143807  0.071364162 
   77350        77289    258.69842    2183.2089    1712.6272   0.67627441   0.44248677    1.2090276  -0.24961921   0.24228826   0.37677337  0.073044352 
   77400        77339    255.23419    241.54476    1715.1307   0.67528728   0.45620072    1.2124768  -0.25388551   0.25884691    0.3726451   0.07859422 
   77450        77389    267.62215   -1945.9186    1720.1272   0.67332576   0.42059212    1.2135745  -0.25572608   0.25718505   0.33934515  0.079788003 
   77500        77439    251.42555   -2628.2314    1724.2276   0.67172454   0.46752166    1.2125124  -0.25852276   0.24894435   0.39258078  0.084519288 
   77550        77489    270.98731    3279.3075    1725.5582   0.67120656   0.41076476    1.2137183  -0.24871426   0.23755251   0.35418227  0.067744245 
   77600        77539    269.71224   -5154.8916    1726.5654     0.670815    0.4128464    1.2120219  -0.25442742   0.23989503   0.35691273  0.070466063 
   77650        77589    263.12044    2628.8409    1725.2324   0.67133331   0.43207209    1.2117156  -0.25951127   0.22579814   0.40022579  0.065559429 
   77700        77639    252.59804    1755.0379    1724.9721   0.67143462   0.46292004     1.211385   -0.2429435   0.23987454   0.39715036  0.068838642 
   77750        77689    267.08052    774.87589     1723.729   0.67191885   0.41673609    1.2081136  -0.26647827    0.2193229    0.3859107  0.077980756 
   77800        77739    268.84791      155.444    1719.9698   0.67338737   0.40856172    1.2051761  -0.26126049   0.24970119   0.35265351  0.067467511 
   77850        77789    261.68356    585.70916    1716.6949   0.67467198   0.42786631    1.2032523  -0.24493747   0.24872003   0.35965447  0.064429287 
   77900        77839    259.72457    1323.4883    1715.9819   0.67495232   0.43172211    1.2013034  -0.24608322   0.24098023   0.37344694  0.063378162 
   77950        77889    244.19349    3286.6024    1719.1493   0.67370879   0.47694535    1.2005071  -0.23782695   0.23514391   0.39608408  0.083544308 
   78000        77939    249.25426   -1308.9784    1727.1938   0.67057094   0.46135782    1.1999149  -0.22630017    0.2488928   0.36867607  0.070089124 
   78050        77989    248.15561    142.36985    1737.5535   0.66657284   0.46844344    1.2037452  -0.26610119   0.25772906   0.39613544  0.080680129 
   78100        78039    248.93597   -2695.2559    1746.3557    0.6632131   0.46813863    1.2057526  -0.26556548   0.26314092   0.40367096  0.066892234 
   78150        78089    253.73112    9071.6816      1754.04   0.66030761   0.45140566     1.203228  -0.23250491   0.22491027   0.38699334  0.072006964 
   78200        78139    273.93847    -5321.646    1762.5054   0.65713611   0.39288679    1.2045849  -0.25813063   0.21769145   0.38269654  0.050629431 
   78250        78189    262.86853    8809.1626    1768.9649   0.65473654   0.42657832    1.2054754  -0.25500439    0.2513211   0.36702792  0.063233694 
   78300        78239    253.11966    -5467.577    1772.5626   0.65340764   0.45628599    1.2062965  -0.24900793    0.2638508   0.38010702  0.061336101 
   78350        78289    272.20613    3927.4961     1774.198   0.65280537   0.39933854    1.2059036  -0.23253732   0.25408536   0.32440946  0.053381039 
   78400        78339    273.20303   -6436.7589     1775.838   0.65220248   0.39662293    1.2061418  -0.25242999   0.24320325   0.34846034   0.05738933 
   78450        78389     269.4609      277.931    1774.8953    0.6525489   0.40476216    1.2031929  -0.24029883   0.22989376   0.34973097  0.065436259 
   78500        78439    270.44523   -2774.9239    1772.0513   0.65359619   0.40445225    1.2057996  -0.23833817   0.24853449   0.33440594  0.059849989 
   78550        78489    259.45443    1704.4794    1770.1063   0.65431438   0.44038788    1.2091688  -0.23643878   0.23385887   0.36149897  0.081468818 
   78600        78539    278.99921   -1137.8471     1770.337   0.65422909   0.38754282    1.2142362  -0.23962817    0.2084558   0.36110405  0.057611153 
   78650        78589    259.95326    1025.2604    1771.4095     0.653833   0.44532024    1.2155792  -0.24373688   0.25006342   0.38900826  0.049985445 
   78700        78639    253.47137    4846.1998    1770.7276    0.6540848   0.46320624    1.2142589  -0.24001554     0.243421   0.38421643  0.075584353 
   78750        78689    255.42341   -1772.2892    1769.3652   0.65458841   0.45716599    1.2140027  -0.23035032   0.29313864   0.33065271  0.063724951 
   78800        78739    266.88898    3781.6928    1770.5678   0.65414382   0.42254396    1.2133539  -0.24462921   0.23870934   0.35395555  0.074508291 
   78850        78789    279.16711   -1963.0842    1772.1008   0.65357794   0.38683682    1.2140277  -0.23476365   0.21713066   0.35269098  0.051778817 
   78900        78839     272.1964    1817.5711    1774.5503   0.65267577   0.40699285    1.2135291  -0.24892932   0.21440253   0.38021774  0.061301904 
   78950        78889    238.89211   -1676.0563    1774.7586   0.65259914   0.50637721    1.2142306  -0.21097152   0.23387829    0.4069644  0.076506033 
   79000        78939     252.0574    4783.4899      1776.59   0.65192642   0.47257275    1.2194357  -0.22758245   0.26148279   0.37978637  0.058886028 
   79050        78989    259.65288   -3665.4521     1781.599   0.65009352   0.44978001    1.2191489  -0.22139572   0.24493455   0.35660888  0.069632297 
   79100        79039    267.54109    992.15985    1786.8839   0.64817079    0.4281829    1.2209251  -0.22054142   0.20897798    0.3688339  0.070912441 
   79150        79089    262.29293   -428.59546     1791.522   0.64649274   0.44877154    1.2259631  -0.23589802   0.24173988   0.37124037   0.07168931 
   79200        79139    256.50571    1114.8793    1792.8737   0.64600534   0.46674502    1.2267887  -0.22651341   0.25848346   0.37752393  0.057251053 
   79250        79189    276.43484   -2438.9694    1792.0632   0.64629749   0.40671928    1.2258143  -0.22722987   0.21281585   0.35163412  0.069499183 
   79300        79239    255.16238    1609.4454    1791.9325   0.64634465   0.47118419    1.2272474  -0.21856267   0.20811582   0.40798411  0.073646921 
   79350        79289    266.17635   -288.50562     1792.028   0.64631019   0.44061651    1.2293149  -0.24792634   0.26287318   0.35665974  0.069009925 
   79400        79339    265.63091    -3137.239    1790.0214   0.64703472   0.43999614    1.2270784     -0.23592   0.23246273   0.37826439  0.065189027 
   79450        79389     266.8648     4038.852    1787.9646   0.64777903   0.43556974    1.2263081    -0.245463   0.23409088   0.38137618  0.065565695 
   79500        79439    243.50454   -1693.6067    1783.8319   0.64927978   0.50735361    1.2288739  -0.22205512   0.23369935   0.40274664  0.092962743 
   79550        79489    260.42827    4582.2291    1780.2642   0.65058095   0.45829578    1.2299622  -0.25115234   0.22621171   0.39681883  0.086417567 
   79600        79539    251.85877   -9166.8469    1773.0362   0.65323311   0.48949151     1.235766  -0.22901013   0.25114886   0.37641283   0.09093995 
   79650        79589    261.33506    7750.7135    1765.2323   0.65612101   0.46388996    1.2382433  -0.24604282   0.23617756   0.38922694  0.084528281 
   79700        79639    267.71313   -4280.3198     1757.594   0.65897241   0.44540625    1.2386582  -0.24359284   0.25791632   0.37228463  0.058798142 
   79750        79689    255.91843    6047.1087    1751.9673   0.66108882   0.47615966    1.2344632  -0.22396049   0.24764777   0.38638881  0.066083569 
   79800        79739    258.96015   -5077.4795    1750.7008   0.66156704   0.46549291    1.2328092  -0.22365914   0.25222413   0.35284417  0.084083759 
   79850        79789    266.50177    195.25176     1751.632   0.66121536   0.44518614    1.2348488  -0.23918034   0.23067175   0.36588059  0.087814143 
   79900        79839     258.4689    3050.5422    1752.4027   0.66092455   0.46610472    1.2319654  -0.23495649   0.21187666   0.41500029  0.074184255 
   79950        79889    260.47876   -3410.0027    1753.8859   0.66036562   0.45667458    1.2284906  -0.25190513   0.24409209   0.39100424  0.073483386 
   80000        79939    256.68707    1298.0651    1755.0161   0.65994038   0.46466717    1.2252482  -0.24928874   0.21266397   0.41867771  0.082614243 
   80050        79989    259.64203   -404.04579    1755.7419   0.65966756   0.45236403    1.2217008  -0.24508152    0.2065751   0.38913075    0.1017397 
   80100        80039    263.03864    -1562.095    1752.9073   0.66073431   0.44172763    1.2211288   -0.2411873   0.25616636   0.36268938  0.064059189 
   80150        80089    259.72197    5417.2817    1749.8105   0.66190366   0.45128851    1.2208622  -0.23872774   0.24401728   0.37135558  0.074643395 
   80200        80139    244.31002   -1431.5064     1746.889   0.66301062   0.49575404     1.219661  -0.22394241   0.25462735   0.37645925   0.08860985 
   80250        80189    255.92678    1758.2446    1745.9276   0.66337572   0.46299112    1.2213194  -0.23179702   0.22449495    0.3714779  0.098815289 
   80300        80239    265.26717   -1042.6322    1746.1231   0.66330144    0.4378993    1.2239037  -0.25381287   0.23337614    0.3787803  0.079555731 
   80350        80289    261.55919    1975.2176    1744.9795   0.66373616   0.44782553     1.222843  -0.24895317   0.23013833   0.37688109  0.089759283 
   80400        80339    273.81094    1025.5855    1742.1196   0.66482574   0.40666352    1.2179837  -0.26613322   0.22710938   0.37593242  0.069754943 
   80450        80389    250.96427    429.03368    1735.9488   0.66718901   0.46848573    1.2121097  -0.24345963   0.23571775    0.3976842  0.078543407 
   80500        80439    271.64782   -3604.7211    1729.9917   0.66948642   0.40260003    1.2075108  -0.26066776   0.23066063     0.363434   0.06917316 
   80550        80489    273.48134   -1144.3079    1723.3757   0.67205658   0.39349845     1.203842  -0.25228869   0.20930944   0.36171678  0.074760919 
   80600        80539    268.51765     2461.513    1717.3119   0.67442958   0.40676467    1.2024005  -0.24629272   0.19492163   0.38523418  0.072901582 
   80650        80589    260.92643    3140.9953    1711.9283   0.67655051   0.42787892    1.2010214  -0.25033361   0.20843905   0.38299811  0.086775372 
   80700        80639    248.51843    1097.5249    1706.2171   0.67881513   0.46331242    1.1996892  -0.24677808   0.23790473   0.39043048  0.081755291 
   80750        80689    260.23205    -3106.226    1702.3915   0.68034054   0.43005319    1.2011382  -0.25522187   0.24113526   0.36034292  0.083796872 
   80800        80739    256.83293   -1077.3972    1698.3474   0.68196056   0.44091562    1.2019288  -0.26428069   0.24251876   0.37661269  0.086064861 
   80850        80789    269.95357     5221.579    1693.9739   0.68372125    0.4000083    1.1998988  -0.27788262   0.21221181   0.38564319  0.080035927 
   80900        80839    252.71805    925.38686    1688.3478   0.68599964   0.44915568    1.1979762  -0.26705342   0.22866075   0.40353703  0.084011313 
   80950        80889    247.17563   -2172.5519    1683.3896   0.68802016   0.46362789    1.1960259  -0.25776446    0.2626773   0.38384576  0.074869292 
   81000        80939    266.21608    1737.3461    1680.0676   0.68938057   0.40557841    1.1943945  -0.25494833   0.20123307   0.37508863  0.084205032 
   81050        80989    283.58867   -165.55434    1676.9514   0.69066161   0.34994051    1.1902328  -0.25365834   0.18978583   0.34769732  0.066115698 
   81100        81039    270.85874    1558.8142    1675.5269   0.69124882   0.38538114    1.1879538  -0.24719191   0.19389631   0.36477396  0.073902782 
   81150        81089    261.72606   -473.71364    1675.9286   0.69108314   0.41694316     1.192455  -0.26012933    0.2404441   0.35193388  0.084694506 
   81200        81139    239.55051    -2243.627    1675.6904   0.69118138    0.4866456    1.1964498  -0.25607654   0.28655018   0.39075838  0.065413567 
   81250        81189    257.14261    1314.3634    1677.1941    0.6905617   0.43389899    1.1958298  -0.25471397    0.2320469   0.37658622   0.07997983 
   81300        81239    271.56709    468.43204    1679.9489    0.6894293   0.39217421    1.1968457  -0.28330509   0.21704491   0.39283104  0.065603344 
   81350        81289    265.45978    4221.6578     1681.516   0.68878676   0.40655692    1.1931321  -0.25391288   0.25969505   0.33189242  0.068882335 
   81400        81339    254.54456   -1961.0506    1683.3719   0.68802738   0.43917389    1.1934065  -0.25222663   0.23963509   0.36686588   0.08489956 
   81450        81389    273.04036   -22.715234    1686.1623   0.68688879   0.38331829    1.1923552  -0.28094955   0.21293841   0.36786292  0.083466509 
   81500        81439    255.34342    3888.8451    1687.6353   0.68628925   0.43906479    1.1956645  -0.26101078   0.24453165    0.3678087   0.08773522 
   81550        81489    262.78943   -927.00233      1689.93   0.68535736   0.41842075    1.1970835  -0.27132501   0.21986646   0.37272518  0.097154122 
   81600        81539    265.52405     125.9337    1690.9358   0.68494969   0.41161332    1.1983789  -0.26878453   0.24405153   0.36583216  0.070514171 
   81650        81589    241.48612   -745.30985    1692.6163   0.68426964   0.48602193    1.2015615  -0.26928652   0.24110464   0.43156488  0.082638933 
   81700        81639    259.80644   -1831.0878    1693.2365   0.68401901   0.43200839    1.2018323  -0.26421933   0.24702332   0.37055464  0.078649763 
   81750        81689    249.84661    2820.5331    1693.3064   0.68399079   0.46200718    1.2023195  -0.25676333   0.21940471   0.43125338  0.068112423 
   81800        81739    257.75303    5103.5428    1694.6929   0.68343119   0.43747562    1.2012151  -0.26227237   0.21029105     0.403912   0.08554494 
   81850        81789    249.61714   -4872.4905    1696.0605    0.6828801   0.46394768      1.20358  -0.26627723    0.2123854   0.42214546  0.095694049 
   81900        81839     261.7045    2113.1921    1694.4362   0.68353471   0.43112718    1.2065752  -0.25180813   0.22397235   0.39282072  0.066142239 
   81950        81889    258.46677    682.51747    1693.4281   0.68394163    0.4410179    1.2068723  -0.27368063   0.22138671   0.41658853  0.076723283 
   82000        81939    263.23838    1696.2003    1690.8784   0.68497297   0.42681408    1.2068071  -0.25512277   0.23581499   0.36575554  0.080366323 
   82050        81989    268.21367    4604.7526    1689.8696   0.68538185   0.41277729    1.2075124  -0.25899214    0.2097457   0.38140652  0.080617209 
   82100        82039    254.06462   -7872.8466    1689.0106   0.68573045   0.45357498    1.2063855    -0.275192   0.26115027   0.39643088   0.07118583 
   82150        82089    263.47533    2400.1652    1687.9128   0.68617643   0.42383663    1.2045317  -0.24555194   0.22215542   0.37702623  0.070206916 
   82200        82139    267.45163   -1325.7467    1690.8488   0.68498495   0.41032781    1.2028049   -0.2816837   0.23195388   0.39186487  0.068192757 
   82250        82189    270.56898    1890.7321     1693.732   0.68381889   0.39773628    1.1994503   -0.2418789   0.22394377    0.3387225   0.07694891 
   82300        82239    255.53576    1749.7353    1700.3655   0.68115117   0.44345345    1.2006231  -0.25335206   0.22797823    0.3879688   0.08085848 
   82350        82289    261.48042   -2043.8445    1707.6594   0.67824179   0.42822341    1.2030075  -0.27749491   0.23289265   0.40224149  0.070584187 
   82400        82339    249.67134    5275.1227    1712.0303    0.6765102   0.46155193    1.2013449  -0.24097894   0.20725862   0.41983617  0.075436074 
   82450        82389    254.56614    1834.0253    1715.8214   0.67501544   0.44373654    1.1980331  -0.24884777    0.2092189   0.40664937  0.076716043 
   82500        82439     264.6104    2393.8253    1717.6732   0.67428773   0.41578259     1.199841  -0.24407093   0.21250986   0.36919363  0.078150037 
   82550        82489    244.74859   -120.81891     1719.511   0.67356706   0.47892009    1.2041266  -0.26202824   0.27976726   0.38434786  0.076833218 
   82600        82539    247.72969   -3610.3845     1720.101   0.67333602   0.47112555    1.2051653  -0.24488094   0.23683361   0.39914525  0.080027635 
   82650        82589    248.23307   -2102.6102       1719.4   0.67361053   0.46901039    1.2045417   -0.2511767   0.24264782   0.40518402  0.072355245 
   82700        82639    264.15894    3519.3951      1718.89    0.6738104   0.41856223    1.2012829  -0.24510278    0.2219074   0.36605296  0.075704658 
   82750        82689    262.89254   -5097.2147     1717.705   0.67427524   0.42368419    1.2026524  -0.24995094    0.2159337   0.36635181  0.091349609 
   82800        82739    252.71851    7852.7218    1715.5967   0.67510388    0.4535837    1.2024056  -0.25050905   0.25835592   0.36882716  0.076909677 
   82850        82789    254.36327   -8090.6835    1713.8759   0.67578172   0.44805672    1.2017522  -0.26436132   0.25578175   0.37775813   0.07887816 
   82900        82839    255.63201    6711.4536    1711.6949   0.67664278   0.44457631    1.2020311   -0.2636766   0.23196219   0.40461145  0.071679266 
   82950        82889    259.24016   -146.40359    1710.0431   0.67729634   0.43215111    1.2002971  -0.25277843   0.21437539   0.38929375  0.081260395 
   83000        82939    254.45196   -130.57078    1706.8219   0.67857461   0.44814924    1.2021075  -0.25233502   0.22883246   0.38658567  0.085066134 
   83050        82989    267.13949    383.09532    1703.9808   0.67970601   0.40999014    1.2015424  -0.26802436   0.22243086   0.38454341   0.07104022 
   83100        83039    253.66734   -5775.4061    1702.0751   0.68046702   0.45023467     1.201868  -0.26134267   0.22162814   0.39051008  0.099439119 
   83150        83089    267.15111     5532.442    1700.4984   0.68109795   0.41216158    1.2037483  -0.25843703   0.20888088   0.38677894  0.074938789 
   83200        83139    256.95945    625.71464    1702.8053   0.68017522   0.44255103    1.2039391  -0.24621273   0.21796053   0.38950645   0.08129677 
   83250        83189    276.57507   -3022.6461    1708.6228   0.67785935   0.38584853     1.205359  -0.24853045   0.17358747   0.37898823  0.081803278 
   83300        83239    260.74518   -535.51536    1713.0021   0.67612641   0.43533285    1.2079383  -0.26257209   0.26102001   0.34772186  0.089163065 
   83350        83289    266.87109    3827.6119     1716.904   0.67458984   0.41539361    1.2061506  -0.26235203   0.22500859   0.38243516  0.070301896 
   83400        83339    265.13922   -556.71244    1720.2749   0.67326798   0.42000094    1.2056263  -0.25531702   0.22934999   0.36976209  0.076205884 
   83450        83389    261.39796    5983.5117    1724.3099   0.67169245   0.43134519    1.2058849  -0.25520029   0.23702878   0.37626318  0.073253522 
   83500        83439     245.1536   -8075.5821    1727.6459   0.67039546   0.47850837    1.2049149  -0.24428955   0.25136077   0.37935391  0.092083247 
   83550        83489    276.01489    8416.3536    1731.4564   0.66892007   0.38949709    1.2073477  -0.23804287   0.18460559   0.37262377  0.070310597 
   83600        83539    275.41144   -6481.5339    1736.2815   0.66706116   0.39026238     1.206325   -0.2631409   0.20193997   0.37943482  0.072028497 
   83650        83589    264.06509    3624.2175    1739.5598   0.66580404   0.42080159    1.2032442  -0.24896977   0.21855024   0.37718615  0.074034968 
   83700        83639    243.55967    346.67962    1742.8007   0.66456593   0.48357649    1.2052601  -0.20574703   0.24292421   0.38004936  0.066349947 
   83750        83689    255.40266   -2185.9709    1751.1982   0.66137913   0.45156433    1.2083396  -0.23198076   0.26932121   0.34203243  0.072191453 
   83800        83739    271.68874    945.34176    1760.5896    0.6578512   0.40686566    1.2118976  -0.24067631   0.23721581   0.33148651  0.078839652 
   83850        83789    273.35003    3141.9739    1768.5746   0.65488104   0.40065039    1.2106049  -0.23242235   0.23729115   0.33892206  0.056859531 
   83900        83839    244.71672    364.83763    1776.5285   0.65194899   0.48617857    1.2112906  -0.21698658   0.21804397   0.41257207   0.07254911 
   83950        83889    264.34501    -218.2299    1785.0028   0.64885387   0.42762459    1.2108966  -0.24110936   0.21054412    0.3758577  0.082332133 
   84000        83939    259.90991   -1481.6461    1790.8185    0.6467467    0.4442514    1.2143819  -0.24561119   0.20655652   0.40815256  0.075153513 
   84050        83989    274.66413    2130.3422    1791.4783   0.64650851   0.39973188    1.2135801  -0.23582229   0.20448682   0.34787501   0.08319235 
   84100        84039    257.32108    2982.6786    1792.8695   0.64600686   0.45528856    1.2177482  -0.22564089   0.21238574   0.39456584  0.073977867 
   84150        84089    255.86285   -3146.5224    1794.3729   0.64546561   0.46089528    1.2190341   -0.2428024   0.21935461    0.4053295   0.07901356 
   84200        84139    265.85723    2840.3026    1794.9631   0.64525337   0.43248575    1.2202386  -0.21805976   0.22942157    0.3633823  0.057741637 
   84250        84189    258.77113   -4012.3118    1798.0543   0.64414404   0.45627819    1.2230344  -0.21406369   0.22096101   0.38244804  0.066932827 
   84300        84239     264.1275    1361.1864    1802.6849   0.64248942   0.44388569    1.2265132  -0.21388749   0.22610032   0.36817703  0.063495831 
   84350        84289     264.3862    479.61278    1808.7879    0.6403216   0.44550052    1.2288946  -0.22701873   0.22954473   0.37498092  0.067993599 
   84400        84339     244.8806   -1894.7712    1813.3516   0.63871009   0.50691737     1.232515  -0.22045581   0.25339614   0.39864581  0.075331232 
   84450        84389    259.81582    384.33142    1815.8527   0.63783036   0.46652721    1.2363789  -0.22168061   0.28315093   0.33669105  0.068365848 
   84500        84439    248.37935   -3522.2163    1817.0025   0.63742674   0.50214591    1.2381106  -0.22984566   0.25458535   0.40032998  0.077076239 
   84550        84489    254.58333    4488.9715    1813.9623   0.63849508   0.48172877    1.2360763  -0.23263108   0.26380986   0.37190207  0.078647913 
   84600        84539    254.21183   -2550.0929    1809.2687   0.64015143   0.47990804    1.2331548  -0.22325805   0.21331211   0.40750266  0.082351327 
   84650        84589     251.7812    3338.2734     1802.765   0.64246088   0.48421707    1.2302617  -0.23487986   0.22184874   0.40643854  0.090809653 
   84700        84639    273.32509   -5917.6886    1793.0225   0.64595173    0.4177233    1.2276039  -0.24070009   0.22946027   0.34419395  0.084769171 
   84750        84689    260.30212    3518.0729    1783.0848   0.64955181   0.45848633     1.229779  -0.23352568   0.22458025    0.3949009  0.072530861 
   84800        84739    242.18645    2870.7709    1775.2083   0.65243382   0.51418205    1.2317968   -0.1992121    0.2535191   0.37759198  0.082283075 
   84850        84789    248.53751    2070.6769    1774.6484   0.65263967   0.49457483    1.2310082  -0.21965526   0.24607065   0.40529955  0.062859888 
   84900        84839    260.49767   -1598.5428    1776.1076   0.65210349   0.46022095     1.232093  -0.22857851   0.23402889   0.38116711  0.073603467 
   84950        84889    258.59482   -1816.6737    1777.8062   0.65148043   0.46479452    1.2310283  -0.23360239   0.21740909   0.40354747   0.07744036 
   85000        84939    238.65088    979.22922    1777.7393   0.65150495   0.52330453    1.2304431  -0.23515714   0.23365805   0.43808277  0.086720859 
   85050        84989    252.13684    3509.6675    1776.4848   0.65196503   0.48118233    1.2282807  -0.22738899   0.23606956   0.40492096  0.067580794 
   85100        85039    247.90834   -5226.5591    1774.0963   0.65284279   0.49156939    1.2261384  -0.22176916   0.22010402   0.38645777   0.10677677 
   85150        85089    259.40264     1245.955    1771.8549   0.65366865   0.45538699    1.2240144   -0.2327864   0.21144352   0.39436786  0.082362019 
   85200        85139    261.13125    697.81531    1768.9482   0.65474275   0.45072014    1.2244696  -0.24047812   0.23184746    0.3726652  0.086685597 
   85250        85189    258.11457    2000.5571    1766.9429   0.65548581   0.46036082    1.2251716  -0.25534498   0.25732149   0.38669522  0.071689089 
   85300        85239    247.20162    5233.2731     1764.138     0.656528   0.49250261    1.2249776  -0.22876203   0.26443646    0.3638065   0.09302167 
   85350        85289    237.02823   -4399.7104    1758.7287   0.65854726   0.51954552    1.2218761  -0.25429083   0.26813826   0.41823794  0.087460155 
   85400        85339     256.0329    6088.2502     1750.994   0.66145629   0.46423983    1.2228825  -0.22792448   0.23081573   0.36368984  0.097658733 
   85450        85389    256.56649   -4959.1915    1746.0631   0.66332425   0.46439789    1.2246216   -0.2431758    0.2399203   0.38530002  0.082353367 
   85500        85439    263.86102    8103.4931    1743.4404    0.6643221   0.44520667    1.2270446  -0.22460831   0.23626062   0.36222661  0.071327752 
   85550        85489    243.10819   -3169.2952    1744.9225   0.66375782    0.5061302    1.2264761  -0.22953047   0.26384417   0.37993011    0.0918864 
   85600        85539    256.32142   -408.77301    1748.6648   0.66233733   0.46685316    1.2263507  -0.24106176   0.23902262   0.37676371  0.092128588 
   85650        85589    258.28421    -2125.654    1751.7464   0.66117217   0.46005608    1.2253696  -0.24421786   0.24166696   0.37449491  0.088112073 
   85700        85639    253.99336   -362.45915    1754.9364   0.65997033   0.47164683    1.2242462  -0.22274584   0.24237369   0.37266159  0.079357381 
   85750        85689     246.7077    2974.0275    1759.8603    0.6581238   0.49591386    1.2269253  -0.24146853   0.22781408   0.40447359   0.10509472 
   85800        85739    267.80694    4983.0208    1763.5842   0.65673417   0.43418646    1.2277164  -0.21697018   0.22227665   0.36807447  0.060805527 
   85850        85789    254.11096   -403.79714    1766.6342   0.65560035   0.47302063    1.2259685  -0.22533396   0.23796956   0.40108427  0.059300759 
   85900        85839    254.56577     1153.527    1771.7164   0.65371972   0.47000413    1.2242996   -0.2352931   0.23504751   0.40275818  0.067491543 
   85950        85889    259.00952    2226.5168    1777.9026    0.6514451   0.45682529    1.2242879  -0.21930606   0.23251236   0.37233771   0.07128129 
   86000        85939    269.98359    951.45099    1784.9836   0.64886086    0.4224787    1.2224582  -0.24093146   0.21375572    0.3716136  0.078040835 
   86050        85989    266.01207   -1579.2213    1787.3701    0.6479945   0.43394813    1.2221598  -0.23407149   0.22999275   0.36500546  0.073021415 
   86100        86039    284.88742   -5201.7798    1787.1905    0.6480596    0.3756018    1.2197423   -0.2566002   0.23879674   0.31936757  0.074037688 
   86150        86089     253.8883   -3847.1786    1781.0154   0.65030655   0.46553157    1.2178196  -0.23302649   0.22964016   0.37875985  0.090158056 
   86200        86139    262.48783    3494.8039    1772.5792   0.65340153    0.4418899     1.219659  -0.23507872   0.21729695    0.3662029  0.093468778 
   86250        86189    262.62033   -1631.9246    1763.2666   0.65685243   0.44017074    1.2183324  -0.26159968   0.23788338   0.37405298  0.089834054 
   86300        86239    261.85485   -482.48039    1751.2549   0.66135774   0.43892138    1.2148149  -0.25041432   0.21553651   0.39295512  0.080844067 
   86350        86289    255.79937    2852.1605    1739.7359   0.66573665   0.45752955    1.2154803   -0.2434872   0.25807088   0.35954183  0.083404039 
   86400        86339    251.70961    760.69589    1731.8254   0.66877755   0.47231417    1.2181466  -0.26634234   0.24267543   0.41087843  0.085102648 
   86450        86389    272.99608    5241.0986    1725.4934   0.67123177    0.4070552    1.2159609  -0.25325537   0.23819325   0.34768306  0.074434261 
   86500        86439    263.90044    1323.7977    1723.7432    0.6719133   0.43226693    1.2142217  -0.22815859   0.25694065   0.32831473  0.075170145 
   86550        86489    263.95127   -4649.1343    1727.3543   0.67050862   0.43130985    1.2134152  -0.24662569     0.247884   0.35206186  0.077989688 
   86600        86539    279.79957    -1094.946    1731.9403   0.66873319   0.38384196    1.2129069  -0.24810126   0.25307523   0.31840749  0.060460498 
   86650        86589    247.14392    4023.3274    1740.8498   0.66531067   0.47716354    1.2094676  -0.22796245   0.23521903      0.39923  0.070676967 
   86700        86639    281.15574   -3920.8056    1754.1281   0.66027444   0.37772508    1.2108084  -0.23567247   0.23732653   0.30199909  0.074071935 
   86750        86689    279.48215    7840.3486     1767.601   0.65524174   0.38474513    1.2128695  -0.25012455   0.21821851   0.33591261  0.080738554 
   86800        86739     259.9893   -6046.1907    1780.4293   0.65052061   0.44479254    1.2151583   -0.2363926   0.22891614   0.38943984  0.062829154 
   86850        86789    255.63647    7001.2078    1791.8282   0.64638228   0.46100928    1.2184773  -0.22946383   0.25719772   0.35696647  0.076308918 
   86900        86839    246.52028    3399.5042    1803.1579   0.64232089   0.49180689     1.222263  -0.24269573   0.26131975   0.38151963  0.091663242 
   86950        86889    234.82566   -4923.9784    1812.2693   0.63909152   0.53046028    1.2262645  -0.21784547   0.27259047   0.40837753  0.067337757 
   87000        86939     253.4629    6352.4812    1821.0631    0.6360054   0.47741191    1.2284395  -0.21621225   0.24877044   0.36160517   0.08324855 
   87050        86989    260.00692   -9547.4323    1828.3294   0.63347772   0.46091486    1.2313328  -0.24023803    0.2513698   0.37251515  0.077267936 
   87100        87039    278.36413    6990.9835    1828.1699     0.633533   0.40632403    1.2311356   -0.2102302   0.20182583    0.3366119  0.078116491 
   87150        87089    274.61515   -1794.7364    1828.5176   0.63341255    0.4164312    1.2301343    -0.205393   0.21395077   0.34069469  0.067178743 
   87200        87139    263.36395    429.58402    1827.9616   0.63360519   0.45479132    1.2351564  -0.22607326    0.2197377   0.38553014  0.075596737 
   87250        87189    260.81202     3657.321    1827.0937   0.63390618   0.46520063    1.2380042  -0.21149253   0.25000127   0.35651329  0.070178602 
   87300        87239    247.94066   -397.96459    1825.4952   0.63446125   0.50381687    1.2384817   -0.2346271   0.27393994   0.39044395   0.07406008 
   87350        87289    271.32452   -3015.3694    1819.8711   0.63642197    0.4309903    1.2349431  -0.23170806   0.26694614   0.32807143  0.067680799 
   87400        87339    266.66858    2043.7418    1812.6973   0.63894065   0.44286645    1.2330234  -0.23614614   0.26611431   0.34163393  0.071264338 
   87450        87389    246.00202   -8665.3569    1803.8942   0.64205869   0.50101702    1.2299375  -0.22497173    0.2759075   0.36822542  0.081855829 
   87500        87439    271.20086    7370.8408    1798.2304   0.64408095   0.42623808    1.2298244  -0.24373185    0.2381401   0.36321489  0.068614931 
   87550        87489    271.83402   -4328.4254    1792.6498   0.64608602   0.41925667    1.2247191  -0.24818229   0.25361121   0.34046391  0.073363841 
   87600        87539    267.34962    1480.8146    1787.1435   0.64807664   0.43039338    1.2225683  -0.22625372   0.23698997   0.35734897  0.062308159 
   87650        87589    271.88198    5714.7543    1786.5484   0.64829253   0.41794246     1.223547    -0.234306   0.22834305   0.35568631  0.068219107 
   87700        87639    261.23714   -5380.3425    1788.8308   0.64746534   0.45191501    1.2259782  -0.23766509   0.24478367   0.38528491  0.059511525 
   87750        87689    262.02609    8091.3093    1792.0053    0.6463184   0.44831068    1.2247116  -0.22407987   0.23158727   0.38526747   0.05553581 
   87800        87739    265.95567    -4027.597     1797.436   0.64436561   0.43454301    1.2225875  -0.23740154   0.22567764   0.38300586  0.063261051 
   87850        87789    280.96368   -460.99353    1801.1437   0.64303917   0.38850942    1.2210237  -0.24555948   0.22226881   0.33856021  0.073239875 
   87900        87839    262.06028   -3930.4012    1799.0739     0.643779   0.44377189    1.2202741   -0.2549898   0.26256996   0.36089521  0.075296523 
   87950        87889    249.57757    2168.8779    1792.0737   0.64629373   0.48099466    1.2205097  -0.20810158    0.2710482   0.35399666  0.064051379 
   88000        87939    245.72073    -2933.918    1786.8558   0.64818099   0.49270177    1.2207888  -0.25710454   0.26642456   0.40963454  0.073747208 
   88050        87989    267.92747    4388.8093    1777.9122   0.65144161   0.42487035    1.2187574  -0.23937607     0.241774   0.33628419  0.086188226 
   88100        88039     255.2195   -5322.1385    1770.6264   0.65412217   0.46400825    1.2202408   -0.2467251   0.28394199   0.34994284  0.076848529 
   88150        88089    252.80632    6357.4893    1764.2166   0.65649875   0.47303821    1.2221203  -0.23810236   0.26124291   0.37927057  0.070627098 
   88200        88139    253.17969   -4573.4117    1759.0152   0.65843999   0.47178165    1.2219701  -0.25173422    0.2541471   0.39540484  0.073963933 
   88250        88189    265.56387    28.927177    1753.8553   0.66037717    0.4311898    1.2180734  -0.25706027   0.22939608   0.37577683  0.083077156 
   88300        88239    269.24069      991.427    1745.5882    0.6635047   0.42021489    1.2179931  -0.24254375    0.2118136    0.3518805  0.099064549 
   88350        88289    273.85292    -2558.598    1738.0632   0.66637738   0.40878994    1.2202345  -0.25020924   0.26102811   0.32319324  0.074777833 
   88400        88339    250.41164    3405.8792    1731.5185   0.66889609   0.47788208    1.2198686  -0.23866491   0.25588791   0.38117174  0.079487334 
   88450        88389    237.36295   -653.29896    1725.4464   0.67125006   0.51809161     1.221414  -0.22846512   0.29983081    0.3671349  0.079591018 
   88500        88439    251.67403    6065.9632    1724.2057   0.67173307   0.47716276    1.2228898  -0.23864226    0.2537466   0.38677121  0.075287206 
   88550        88489    257.14572    1108.9954    1725.2614   0.67132201   0.46296497     1.224905  -0.22089722   0.22849139   0.38797336   0.06739744 
   88600        88539    258.05611    330.62669    1729.9412   0.66950596   0.46156374    1.2262013  -0.23581838   0.23057164   0.39099626  0.075814212 
   88650        88589    269.61089    2184.6143    1736.0154   0.66716342   0.42698881     1.225864  -0.24360801   0.23262192    0.3865393  0.051435605 
   88700        88639    254.40021    857.63449    1742.3595   0.66473421   0.47040364    1.2242085  -0.22323971   0.24200035   0.38006724  0.071575754 
   88750        88689    282.89318     2371.768    1749.4799   0.66202875   0.38535497    1.2235865  -0.25454987   0.24697624   0.31402049  0.078908118 
   88800        88739    271.74195   -2084.2131    1753.8472   0.66038021   0.41738524    1.2225749  -0.22738982    0.2545805   0.32923566  0.060958907 
   88850        88789    257.59665   -865.25738    1758.9963   0.65844707   0.46005105    1.2233272  -0.24048976   0.27684736    0.3314985  0.092194954 
   88900        88839    248.20197    430.36331    1763.4862   0.65677065   0.48807154    1.2235106  -0.24071417    0.2702399   0.39233144  0.066214369 
   88950        88889    247.24314    2888.9767    1767.6183   0.65523533   0.48876865    1.2213667  -0.22245166   0.26954067   0.37623779  0.065441857 
   89000        88939    271.84627   -3780.9516    1774.8352   0.65257101   0.41450728     1.220006  -0.25892697   0.24452156   0.34163554  0.087277145 
   89050        88989    274.00612    3021.0857    1778.6762    0.6511618   0.40888308    1.2207816  -0.24975383   0.23299262   0.35116821  0.074476066 
   89100        89039    259.07342   -2958.2374    1778.6856   0.65115834   0.45300391    1.2206558  -0.23341019   0.24900586   0.36635282  0.071055415 
   89150        89089    233.34393    5035.8488    1777.9657   0.65142199   0.52828273    1.2196965  -0.22691735   0.25004981   0.43142193  0.073728344 
   89200        89139    249.75621    2167.7409    1776.4154   0.65199051   0.48031268    1.2203571  -0.22040015   0.24683949   0.38095588  0.072917466 
   89250        89189    273.31971   -1961.8263    1777.9558   0.65142563   0.41106359    1.2209282  -0.23805619   0.22019443   0.35930459  0.069620757 
   89300        89239    260.06764    347.39684    1779.7969   0.65075175   0.45093428    1.2215322  -0.24692119   0.25646675   0.34844586  0.092942859 
   89350        89289    272.41478   -5133.1087    1777.1948   0.65170455   0.41536315    1.2225464  -0.23960747   0.23600071   0.32872966  0.090240257 
   89400        89339     262.4686    1203.8588    1774.7685   0.65259552   0.44542244    1.2231345  -0.24015493    0.2669849   0.34535033  0.073242135 
   89450        89389    269.99179   -1239.8116    1772.0745   0.65358761   0.42412458    1.2241284  -0.23760258   0.25363956   0.33919105  0.068896548 
   89500        89439    241.20315   -187.22398    1771.8821   0.65365861   0.51208132    1.2267825  -0.22962757   0.25148249   0.41459721  0.075629193 
   89550        89489    250.66559    797.58842    1771.8468   0.65367162    0.4845593    1.2272983  -0.24103157   0.23867316   0.40365639  0.083261316 
   89600        89539    269.32286    3189.2637    1770.7897   0.65406183   0.42825193    1.2262737  -0.24486776   0.22642909    0.3654708  0.081219797 
   89650        89589    258.89927   -1434.0553    1768.5723    0.6548819   0.45796449    1.2251004  -0.22867592   0.26655702   0.33895267  0.081130727 
   89700        89639    268.76214    3392.2028    1767.0469   0.65544721   0.42920015    1.2255604  -0.24686032   0.23674894   0.35142958   0.08788194 
   89750        89689    254.21197   -3489.5327    1764.4444   0.65641398   0.47307483     1.226322  -0.23067098    0.2589715   0.35391593  0.090858382 
   89800        89739    277.88869   -1074.7758    1760.4285    0.6579114   0.39847407    1.2218769  -0.25869419   0.23449142   0.34343103    0.0792458 
   89850        89789    273.15583     -2523.19    1752.4102   0.66092174   0.40648254    1.2158616  -0.24619374    0.2444146   0.34016678  0.068094898 
   89900        89839     256.2953   -2716.6167    1744.7998    0.6638045    0.4509527    1.2103729  -0.23296566   0.25981889   0.34469289  0.079406584 
   89950        89889    252.32371    920.06289    1738.5927    0.6661744   0.46459844    1.2122505  -0.24029544   0.27197968   0.34281125  0.090102951 
   90000        89939     256.3278   -1700.2288    1734.6565   0.66768608   0.45567408    1.2151906  -0.24722202   0.25822279   0.35903925  0.085634054 
   90050        89989    263.66933     482.2242    1731.8458   0.66876967    0.4352032    1.2164731  -0.26004623   0.27526552   0.32468278  0.095301133 
   90100        90039    255.34483     3144.704    1727.3971     0.670492   0.46157878    1.2181827  -0.24214733   0.27542479   0.35429831  0.074003001 
   90150        90089    254.33941    442.97608     1724.613   0.67157442   0.45948803    1.2131128  -0.24290028   0.26219762   0.35680563  0.083385063 
   90200        90139    277.24344    3370.5073    1724.4442   0.67164017   0.39196686    1.2134578  -0.23363014   0.25639386   0.28262733  0.086575811 
   90250        90189    257.50022   -2756.6767    1727.9838   0.67026438   0.45232595    1.2153164  -0.24512723   0.24923883   0.33997254   0.10824181 
   90300        90239    274.41122      975.736    1732.4183   0.66854869   0.40693634    1.2200352  -0.25442535   0.24753892   0.32223189  0.091590868 
   90350        90289    272.26511    -3683.415    1735.6669   0.66729739   0.41330108    1.2200409  -0.24439865   0.24788467   0.34326776  0.066547304 
   90400        90339    258.09226    4520.6217    1740.6651   0.66538129   0.45090649    1.2156512  -0.23297721   0.23276216   0.35988466  0.091236884 
   90450        90389    258.30565   -1555.6136    1745.9736   0.66335825    0.4537113    1.2190883  -0.25148359   0.26207331   0.35483562   0.08828597 
   90500        90439    257.89126    1574.9058    1751.3196   0.66133331   0.45631098    1.2204601  -0.24995226   0.25717426   0.35859398  0.090495002 
   90550        90489    252.43951    699.75038    1754.6859   0.66006457   0.47288712    1.2208823  -0.24959451   0.28606632   0.35087588   0.08553943 
   90600        90539    256.80597   -288.82342    1756.6706   0.65931883   0.46043486    1.2213682  -0.24988556   0.30562534   0.33383093  0.070864144 
   90650        90589    255.22678    954.91166    1756.1257   0.65952338   0.46459939    1.2208535   -0.2551628   0.27722687   0.35009218  0.092443152 
   90700        90639    234.60631   -977.52177    1753.0695   0.66067316   0.52634303    1.2214973  -0.23905004   0.31014948   0.36258986  0.092653718 
   90750        90689    245.36014   -2280.4667    1750.1107   0.66179014   0.49579608    1.2228146  -0.24144696   0.27627053   0.37608419  0.084888312 
   90800        90739    260.55949    1125.2801    1748.7317   0.66231198   0.45311375     1.225169  -0.23171655   0.23203968   0.38005354  0.072737083 
   90850        90789    270.48698    1598.7812    1749.4314   0.66204708   0.42379557    1.2252667  -0.24962611   0.23613538    0.3470588  0.090227497 
   90900        90839    281.80309    3621.3822    1750.6485   0.66158681   0.38745558    1.2224571  -0.24016176   0.23690167   0.32207008  0.068645592 
   90950        90889      263.643   -4059.9926    1753.0484   0.66068111   0.44185302    1.2230449  -0.24124929   0.25619603   0.33806254   0.08884373 
   91000        90939     256.6616    5521.3238    1756.7343   0.65929491   0.46471366    1.2252192  -0.23460185   0.25027545   0.36102659  0.088013468 
   91050        90989     271.0876   -479.27735    1764.9999   0.65620738   0.42702086    1.2302716  -0.22516173   0.24680456   0.32240396  0.082974067 
   91100        91039    273.83346    1897.7547    1774.0626    0.6528552   0.42236783    1.2337548    -0.255792   0.26484594   0.31629632  0.097017584 
   91150        91089    269.05358   -3313.2689    1779.9768   0.65068601   0.43925499    1.2364788  -0.23869119   0.29111721   0.32048119   0.06634778 
   91200        91139    240.37661    -832.1247    1783.7157   0.64932206    0.5228168    1.2350688  -0.22432652   0.32497118   0.34351557  0.078656573 
   91250        91189    244.78684    6.7676558    1788.0467   0.64774929   0.50607807    1.2313979  -0.23560953   0.27699736   0.37633222  0.088358033 
   91300        91239    268.05803   -204.89257    1791.7798   0.64639972   0.43804831    1.2323223   -0.2231832   0.24202214   0.32300122  0.096208146 
   91350        91289     274.8502    3512.6797    1796.6891    0.6446335   0.42220182    1.2366014  -0.23502615   0.25258902   0.33245643  0.072182519 
   91400        91339    280.10652    -2792.053    1800.8255    0.6431528   0.40613754     1.236112  -0.23461802    0.2416751   0.31857497  0.080505493 
   91450        91389    237.84037    4416.1462    1801.4891    0.6429159   0.53173039    1.2364674  -0.22410375   0.26780979   0.39668073   0.09134362 
   91500        91439    253.75136    2020.8658    1800.8281   0.64315188   0.48149279    1.2333751  -0.23298581   0.28102246   0.35438572  0.079070418 
   91550        91489    265.50039   -1571.0882     1797.727   0.64426133   0.44602436    1.2327198  -0.24121419   0.25736589   0.37443853  0.055434121 
   91600        91539    239.20597   -181.68966    1793.8339   0.64565955   0.52151228    1.2302956   -0.2310632   0.28694923   0.38440586  0.081220396 
   91650        91589    252.49302     759.7578    1790.2753   0.64694295   0.47878786    1.2269416  -0.22140731   0.24216679   0.37787219  0.080156203 
   91700        91639    240.43668     490.7277    1788.3119   0.64765324   0.51433002    1.2267601  -0.22281838    0.2941497   0.36705059  0.075948117 
   91750        91689    261.71135    304.60239    1789.0876   0.64737241   0.45331046    1.2287788  -0.24176741    0.2788091   0.34142795  0.074840823 
   91800        91739    271.00511   -2080.4294    1788.0764   0.64773853   0.42449404    1.2275004  -0.25569758   0.29885133    0.3202873  0.061052984 
   91850        91789    261.99756     934.0098    1784.7432   0.64894826    0.4445744    1.2208908  -0.23193205   0.26698604   0.32218227  0.087338139 
   91900        91839    260.76362    1891.0721    1782.9063   0.64961687   0.44545609    1.2181162  -0.23682175   0.27621179   0.34400955  0.062056501 
   91950        91889    257.52602    1826.6492    1780.0216   0.65066962   0.45385197    1.2169189  -0.22420867   0.27034677   0.34821947  0.059494406 
   92000        91939    247.88417     4563.852    1779.9822   0.65068401   0.48465123    1.2191487  -0.22017548   0.27863891   0.35570742  0.070480388 
   92050        91989    252.48273   -3814.3592     1780.969    0.6503235   0.47395126    1.2220745  -0.21760935   0.28746472   0.34530708  0.058788817 
   92100        92039    258.92808    912.83298    1783.7107    0.6493239   0.45442861    1.2216499  -0.24264123   0.26257402   0.36768017  0.066815645 
   92150        92089    241.58663   -486.96261     1785.224   0.64877346   0.50435046    1.2201879  -0.24364936   0.26342217   0.40296572   0.08161192 
   92200        92139    244.36838    1149.4431     1783.236   0.64949674   0.49845652    1.2225364  -0.23548951   0.27937108    0.3681503  0.086424645 
   92250        92189      258.499     819.5394    1779.3917   0.65089995   0.45555453    1.2215044  -0.24682752    0.2756439   0.33354903  0.093189116 
   92300        92239    248.28293    -96.49088    1772.1181   0.65357154   0.48766671    1.2233457  -0.22374251   0.26278448   0.34986456  0.098760178 
   92350        92289    258.37008    2567.8244    1766.5383   0.65563591   0.46016243    1.2257303  -0.23537167   0.24807594   0.36875293  0.078705228 
   92400        92339    265.40169   -148.32997    1761.7211   0.65742866   0.43874806    1.2251511  -0.22519989   0.25567056   0.34356338  0.064714009 
   92450        92389    263.26227    2551.1977    1758.6671   0.65857033   0.44201159    1.2220754   -0.2541484   0.24478609   0.35501641  0.096357483 
   92500        92439    264.40666    1476.1186    1755.7556   0.65966243   0.43846256    1.2219172  -0.24353811   0.26655648   0.33217981  0.083264387 
   92550        92489    270.13842   -4730.9539    1755.6008   0.65972059    0.4200366    1.2204749  -0.25745753   0.26714811   0.34417764  0.066168379 
   92600        92539    278.81361    1934.6717    1755.0016   0.65994581   0.39019171    1.2163351  -0.22419883   0.22140022   0.30562541  0.087364909 
   92650        92589    272.53851   -628.08889    1760.4146    0.6579166   0.41056333    1.2181132   -0.2553846   0.25125945   0.33412745  0.080561023 
   92700        92639    257.37126    2181.3215    1766.2578   0.65574004     0.456256    1.2188643  -0.23486047   0.27015529   0.32639143  0.094569753 
   92750        92689    269.71511    2268.4345    1772.4313   0.65345605   0.41901432    1.2181983  -0.25684025   0.25839269   0.31429264   0.10316923 
   92800        92739    249.81335   -2300.0596    1774.2172    0.6527983   0.47873706    1.2189508  -0.23477576   0.26393915   0.34775547   0.10181821 
   92850        92789    262.44415    4440.6791    1776.2401   0.65205484   0.44738329    1.2250229  -0.21907445   0.25440585   0.33404841   0.07800348 
   92900        92839    241.90775     3402.829    1782.7736   0.64966519    0.5124085    1.2291974  -0.23100386   0.29780092   0.34777655  0.097834887 
   92950        92889    243.05884    2066.1765    1787.6687   0.64788626   0.51322351    1.2334232  -0.22516412   0.30045524   0.35801331  0.079919077 
   93000        92939    253.77278    1687.6596    1791.0365   0.64666799   0.47912507    1.2310709  -0.21344775   0.29195001   0.31070614  0.089916678 
   93050        92989     268.2787   -3908.5039    1791.9249   0.64634739   0.43403802    1.2289658  -0.22996751   0.30821576   0.27901134  0.076778425 
   93100        93039    257.93643     1473.187    1791.1333   0.64663304   0.46236423    1.2266472  -0.20485061   0.28244533   0.30635622  0.078413298 
   93150        93089    277.56898    3390.1542    1793.3465   0.64583501   0.40469288    1.2271484  -0.22508512   0.26608717   0.27510139   0.08858944 
   93200        93139    266.50523   -2267.1522    1796.1066   0.64484256   0.43711751    1.2267904  -0.23088728    0.2467133   0.32533165  0.095959847 
   93250        93189    268.88914   -374.35981    1797.7239   0.64426242   0.43104244     1.227779  -0.23400524   0.24405905   0.33302343  0.087965204 
   93300        93239     262.8041   -6344.6085    1799.3704    0.6436729   0.44873971    1.2274459  -0.25113563    0.2663132   0.34278921  0.090772932 
   93350        93289    265.01999    5662.4953    1795.6972   0.64498956   0.44061381    1.2258858  -0.23577589   0.26323409   0.31505645  0.098099162 
   93400        93339    257.22091   -2335.4689    1791.1698   0.64661986   0.46393449    1.2260973  -0.23501193   0.28196099   0.31590804   0.10107737 
   93450        93389     268.2635    3927.9355    1784.2206   0.64913831   0.43472314    1.2296059  -0.22238993   0.24761187   0.32527014  0.084231058 
   93500        93439    268.21229   -4550.9618    1779.2587    0.6509486   0.43772211    1.2324531  -0.22020006   0.24872104   0.33267877  0.076522351 
   93550        93489    263.12159    3337.3436    1774.0289    0.6528676   0.45556665    1.2352136  -0.22220791   0.26095219   0.34201826  0.074804112 
   93600        93539    273.14332    3107.0355    1771.2149   0.65390482   0.42515947    1.2345015  -0.24249071   0.25003166   0.34545635  0.072162167 
   93650        93589    268.85297   -172.41029    1768.8274   0.65478743   0.43440338    1.2310328    -0.229945   0.23873169   0.33494236   0.09067434 
   93700        93639    261.19119   -180.56252    1768.5948   0.65487356   0.45694075    1.2308678  -0.21687969   0.27628818   0.32015126  0.077380996 
   93750        93689    272.40063    210.37935    1771.5724   0.65377286   0.42537731    1.2325187  -0.23302121    0.2701948   0.32787665  0.060327076 
   93800        93739    242.44938    979.70473    1775.9355   0.65216669     0.513432    1.2318258  -0.24187537   0.31922937   0.35070057  0.085377432 
   93850        93789    244.71155   -262.73371    1778.1502   0.65135441   0.50615029    1.2312471  -0.19350361   0.28586178   0.32301281  0.090779314 
   93900        93839    253.32735    825.41239    1785.2347   0.64876959   0.48173858    1.2323645  -0.23014704   0.28723788   0.34516454  0.079483193 
   93950        93889    257.55154    288.85898    1793.8902   0.64563926   0.47173697    1.2348795  -0.21997972   0.23901995   0.36279421  0.089902522 
   94000        93939     257.8874    3384.2222    1802.2222   0.64265436   0.47045348    1.2345912  -0.20904224   0.21113536   0.38235838  0.086001997 
   94050        93989    278.10778    -1234.666    1809.1612   0.64018946   0.40858027    1.2326323  -0.23868835   0.21876656   0.33861932  0.089882733 
   94100        94039    265.21943    1082.0648    1809.7238   0.63999046   0.44591043    1.2317734   -0.2219229   0.22296929   0.35880591  0.086058138 
   94150        94089    263.61161   -2871.2268    1809.3687   0.64011607   0.45397753    1.2350764  -0.23104925   0.25041249   0.34769584  0.086918455 
   94200        94139    265.57733   -2677.6823    1807.8835   0.64064194    0.4484852    1.2354087  -0.24416348   0.23707104   0.35920853  0.096369096 
   94250        94189    244.12803    2760.6033    1802.0886   0.64270202   0.51419359    1.2375613  -0.21807278   0.28730256    0.3617997  0.083164118 
   94300        94239    264.65038   -2274.5731    1797.0263   0.64451253   0.45418037    1.2383572  -0.25718597   0.28943651   0.34334399   0.07858583 
   94350        94289    259.55971   -1006.9006    1788.4347   0.64760875   0.46451756    1.2336104  -0.24207936   0.28375909   0.33234075  0.090497086 
   94400        94339    268.65443    2587.4136    1779.2576   0.65094901   0.43183419    1.2278753  -0.22246752   0.24581742   0.32522901   0.08325528 
   94450        94389    240.59421   -2163.9372    1771.9513   0.65363309   0.51465609    1.2275529  -0.25659988    0.2966097   0.38567164  0.088974622 
   94500        94439    258.72325    6771.6959     1764.351   0.65644874   0.46021681    1.2268312  -0.21811835   0.27055519   0.31884593  0.088934043 
   94550        94489    272.22278   -418.42244    1761.5036   0.65750983   0.41964531    1.2262597   -0.2505176   0.23406712   0.35605508  0.080040696 
   94600        94539    271.89734    3541.0288    1757.7688   0.65890691   0.41807626    1.2237263  -0.21418762   0.22082147    0.3289921   0.08245032 
   94650        94589    282.35447    355.33904     1759.783   0.65815271   0.38589697    1.2225322  -0.24947095   0.21905443   0.33603974  0.080273749 
   94700        94639    269.94169    779.40241    1763.7818   0.65666056   0.42109037    1.2209457  -0.24803928   0.23261026   0.34386537  0.092654017 
   94750        94689    262.05152    5369.5139    1767.4602   0.65529396   0.44071712    1.2171934  -0.22351063   0.22685293   0.35365252  0.083722297 
   94800        94739    267.00703    1271.6883    1775.6735   0.65226291   0.42990243    1.2210622   -0.2324482   0.27566177   0.31957385  0.067115019 
   94850        94789    252.41689   -789.45262      1784.67   0.64897487   0.47306792    1.2209961  -0.24041887   0.30304731   0.31967227  0.090767207 
   94900        94839    256.58647   -4106.5021    1792.5207   0.64613256   0.46104679    1.2213297  -0.23395953   0.27641156   0.31338542   0.10520934 
   94950        94889    265.04893   -3134.9478    1796.4299   0.64472651   0.43446781    1.2198256  -0.23916004   0.25783312   0.34224665  0.073548084 
   95000        94939     259.8985    3175.9622    1797.3094   0.64441101   0.44979572    1.2198924  -0.22580993   0.23023582   0.34587489  0.099494941 
   95050        94989     264.0056    -2187.297    1798.9068    0.6438388   0.43995333    1.2222196  -0.22300243   0.23325899   0.35726674  0.072430038 
   95100        95039     250.0065    3076.6188    1799.4611   0.64364046   0.48068732    1.2214734  -0.23027945   0.23182414   0.38338879  0.095753834 
   95150        95089    258.53119    2615.4986    1800.4788   0.64327664   0.45702511    1.2230704  -0.20788837   0.24060584   0.35613716  0.068170467 
   95200        95139    261.45613   -243.74994    1803.8475   0.64207532   0.44864997     1.223362  -0.25033282   0.23853633    0.3741017  0.086344772 
   95250        95189    255.23031     5406.169    1805.0965   0.64163106   0.46767826    1.2239428  -0.24691128   0.24593698   0.37966185  0.088990713 
   95300        95239    247.32772   -5639.0863    1805.8244   0.64137241   0.49169812    1.2245468  -0.25009261   0.28285333   0.36928601  0.089651379 
   95350        95289    234.63742    1166.5916    1803.8105   0.64208848   0.52959853    1.2248449   -0.2169935   0.27162647   0.39357669  0.081388861 
   95400        95339    258.82683    -306.9719    1803.5509   0.64218093   0.45960636    1.2265276  -0.23158752     0.235001   0.35983123  0.096361647 
   95450        95389    256.37409    2713.7211    1802.6978    0.6424848   0.46896811    1.2286218  -0.21182756   0.22600904   0.37224232  0.082544313 
   95500        95439    258.65542    3096.4467    1804.4653   0.64185551   0.46318114    1.2295945  -0.20170777   0.22510474   0.35155255  0.088231627 
   95550        95489    275.07107    977.21521     1810.612   0.63967651   0.41176302    1.2268171  -0.20272645   0.22007178   0.31475452  0.079663175 
   95600        95539    281.57601   -2482.6859    1820.0023   0.63637611   0.39488671    1.2292153  -0.23551982   0.21571594    0.3261421  0.088548486 
   95650        95589    278.82986    3155.4986    1829.1582   0.63319072   0.40531904    1.2315106   -0.2487973    0.2314376   0.33803526  0.084643485 
   95700        95639    252.50999    2411.0911    1834.6802   0.63128494   0.48275942    1.2309635  -0.22308852   0.24581168   0.37022224  0.089814025 
   95750        95689    266.87953   -2109.2609    1835.5854   0.63097362   0.44024023    1.2310222   -0.2174427   0.23581461    0.3539383  0.067930018 
   95800        95739    257.77658   -827.30103    1834.9231   0.63120138    0.4654658    1.2292751   -0.2367578   0.26314848   0.35556342  0.083511701 
   95850        95789    246.55549   -2744.2036    1830.5613   0.63270537    0.5005098    1.2310703  -0.22181211   0.29531981    0.3445797  0.082422393 
   95900        95839    260.54339    2988.4698    1826.4337   0.63413523   0.45769421    1.2297018  -0.21707066   0.27583097   0.32959409  0.069339819 
   95950        95889    250.08505     650.6959    1823.8908   0.63501935    0.4885103    1.2295291   -0.1945475   0.27758963   0.32688514  0.078583035 
   96000        95939    270.00806   -769.92374    1826.1567   0.63423143   0.43090732    1.2309593   -0.2222446   0.24165159   0.32419057  0.087309754 
   96050        95989     258.9829    -4676.243    1829.4524   0.63308887   0.46548633    1.2328701  -0.21903524   0.27141121   0.32904273  0.084067626 
   96100        96039    257.45442     1877.975    1830.8229   0.63261496   0.47207054    1.2349253  -0.22359425   0.26286671   0.35240799  0.080390092 
   96150        96089    270.98154   -3581.0394    1833.3732   0.63173498   0.43334535    1.2362818  -0.23617947   0.26283172   0.31244325  0.094249839 
   96200        96139    271.70921   -2840.6196     1832.391   0.63207359   0.43114604    1.2362387  -0.26310872   0.29426376   0.33294136  0.067049642 
   96250        96189    267.81464    391.43054    1824.1962   0.63491304   0.43538444    1.2289372   -0.2331382   0.25304695   0.33457273  0.080902954 
   96300        96239    271.02966    -2671.443    1815.1978   0.63806049    0.4234879     1.226567  -0.23572248   0.25327649   0.31857431  0.087359586 
   96350        96289    259.53062    1046.1493    1806.1557   0.64125478   0.45933232     1.228339  -0.22852515   0.28791505   0.32686222  0.073080203 
   96400        96339    252.65843    5330.3418    1798.4169   0.64401418   0.47824492    1.2268888  -0.21112994   0.27726189   0.32308722  0.089025745 
   96450        96389    260.00839   -2611.7737    1793.7102   0.64570407   0.45699063    1.2274129  -0.23215968   0.26595364   0.35445189  0.068744779 
   96500        96439    247.21712    1889.2285    1790.2754   0.64694292   0.49632649    1.2288474  -0.20645848   0.25010322   0.35816237  0.094519382 
   96550        96489    266.07996    -511.6852    1789.3591    0.6472742   0.44306896    1.2314817  -0.22692185   0.26296567     0.327008  0.080017154 
   96600        96539    271.77189   -3304.5541    1789.7127   0.64714632   0.42611989    1.2313982   -0.2313029    0.2405159   0.34745953  0.069447373 
   96650        96589    256.83508    4522.2317    1790.6617   0.64680335   0.46765538     1.228675  -0.21946452   0.23546237   0.36790262  0.083754909 
   96700        96639    265.59027   -3793.9793    1795.4888   0.64506444   0.44374025    1.2307021  -0.21262723    0.2113043   0.36638609  0.078677085 
   96750        96689    262.10696    10497.792    1800.6436   0.64321776   0.45763127    1.2342718   -0.2179023   0.21085494   0.38444574  0.080232894 
   96800        96739    277.52163   -889.08695    1807.5417   0.64076307   0.41363949    1.2359547  -0.21511333     0.215268   0.33914427  0.074340566 
   96850        96789      269.222   -680.31712    1815.1105   0.63809117   0.44020021    1.2379231  -0.24346995   0.23690037   0.35513576  0.091634022 
   96900        96839    270.90424   -273.93889    1815.8196   0.63784199   0.43564627    1.2383537  -0.22527457   0.29581353   0.30772918   0.05737812 
   96950        96889    245.70977     1667.802    1814.8117   0.63819622   0.51298585    1.2410404  -0.22604342   0.29033355   0.36971584  0.078979873 
   97000        96939    247.86519   -5394.5025    1811.2164   0.63946304   0.50709866    1.2415399  -0.23646811   0.31147859   0.36280766  0.069280516 
   97050        96989    253.80193    4565.9391     1804.097   0.64198654   0.48397077    1.2360029  -0.23105434   0.28732844   0.33837804  0.089318626 
   97100        97039     248.9945   -10586.033    1795.6956   0.64499015   0.49421721    1.2320046  -0.23931314   0.30866809   0.35787597  0.066986286 
   97150        97089    274.78797    3751.0519    1787.1252   0.64808329   0.41394104    1.2281562  -0.24432081    0.2759965    0.3211403   0.06112506 
   97200        97139    260.66322   -654.05565    1780.8871    0.6503534   0.45334408    1.2257067  -0.23183829   0.25036278   0.35019905   0.08462054 
   97250        97189    267.70078    5129.4507    1777.6009   0.65155569   0.43301726    1.2262327  -0.23470637   0.24171304   0.35109643  0.074914156 
   97300        97239    261.77443    2438.6594    1775.2238   0.65242814   0.45321619    1.2288714  -0.22690329   0.23332935    0.3729297  0.073860427 
   97350        97289    266.16685   -317.84947    1775.8358   0.65220331   0.44241845    1.2310887  -0.25259075   0.21886865   0.37266005    0.1034805 
   97400        97339    281.83465   -856.05467    1773.5406   0.65304734   0.39739747    1.2324925  -0.23400886   0.23277863   0.33141077  0.067216929 
   97450        97389    258.89113    846.19704    1772.1221   0.65357007   0.46470569    1.2318175  -0.25068116   0.25126267   0.36774176  0.096382415 
   97500        97439    255.62488   -1915.4309     1769.833   0.65441539   0.47433729     1.231771  -0.22254924   0.26356132   0.34471319  0.088612013 
   97550        97489    275.90588   -215.30855    1771.9906   0.65361858   0.41517942    1.2327071  -0.23600954   0.24882058   0.33213145  0.070236935 
   97600        97539    261.80136   -2816.6787    1775.7511    0.6522344   0.45573733    1.2314723  -0.24833969   0.26853527    0.3492947  0.086247045 
   97650        97589    254.73873     452.1828     1777.908   0.65144315    0.4775021    1.2323101   -0.2256063   0.27816101   0.32940664  0.095540755 
   97700        97639    245.41247    3909.2505    1780.2379   0.65059056    0.5085796    1.2357532  -0.23099676   0.31742638   0.35172221  0.070427765 
   97750        97689    267.55866   -4837.7577    1783.2557   0.64948956   0.44056547    1.2333597  -0.25877968     0.264461   0.36043032  0.074453837 
   97800        97739    258.45866     162.5342     1783.293   0.64947597   0.46262182    1.2284522   -0.2394255   0.27534245   0.33984693  0.086857941 
   97850        97789    256.81953   -3098.2975    1780.7254   0.65041244   0.46309719    1.2240707  -0.23116226   0.25616075   0.35015163  0.087947061 
   97900        97839     245.0786    2103.4542    1775.6045   0.65228828   0.49876498    1.2249493  -0.23550631   0.26158229   0.37381416  0.098874839 
   97950        97889    259.31273    1083.8183    1771.4993   0.65379984   0.45717123    1.2255323  -0.23575639   0.26234031   0.34812171  0.082465596 
   98000        97939    256.03729   -2112.4409    1768.5368   0.65489502   0.46499214    1.2236478   -0.2488546   0.23706007   0.39857145  0.078215228 
   98050        97989    269.11599   -191.10563    1764.4408   0.65641532   0.42099289    1.2184016  -0.23403706   0.21534307   0.36871476  0.070972116 
   98100        98039    258.77824    3714.2823    1762.5563   0.65711715   0.45073397    1.2175113  -0.23937179   0.22742997   0.36884516   0.09383063 
   98150        98089    247.39362    260.85274    1762.6185   0.65709394   0.48794345    1.2209873  -0.23700678   0.26830766    0.3642391  0.092403461 
   98200        98139    275.19682    2259.8477    1763.1266   0.65690459     0.404037    1.2194637  -0.25851347   0.22598293   0.35755479  0.079012743 
   98250        98189    244.60022   -105.16762    1761.0834   0.65766672   0.49169272    1.2164596  -0.25366664   0.22287686   0.41391005   0.10857245 
   98300        98239    249.07369    -2000.997    1756.8928   0.65923544   0.48084288    1.2188649  -0.23046469   0.23890736   0.36459387   0.10780634 
   98350        98289    246.45486    -928.4073    1751.5277   0.66125473   0.49071677    1.2209791  -0.23938093   0.28477178   0.35997408  0.085351837 
   98400        98339     241.6734   -4872.2098    1745.1841   0.66365833   0.50557377    1.2216683  -0.26679566    0.2758836   0.39721354  0.099272285 
   98450        98389     251.2207    8728.3051    1736.3932   0.66701824   0.47606074    1.2204446  -0.24046043   0.26981958   0.35581312  0.090888473 
   98500        98439    245.25972   -3657.8143    1729.7151   0.66959351    0.4918434    1.2185644   -0.2475538   0.27433968   0.37728089  0.087776626 
   98550        98489    262.09803      2103.94    1723.0097   0.67219933   0.44026266    1.2168767   -0.2527981   0.26318096   0.33409729  0.095782511 
   98600        98539    265.20798    4730.6496    1717.0162   0.67454576   0.42631166    1.2121407  -0.25894064   0.24091287   0.36182967  0.082509757 
   98650        98589    265.73234   -7215.9916    1711.9965   0.67652357   0.42388634    1.2112691  -0.26751838   0.25001229   0.34777041  0.093622026 
   98700        98639    258.89273     11642.65    1709.1217    0.6776615   0.44532244     1.212439  -0.25207744   0.25909474    0.3333279   0.10497725 
   98750        98689    261.69079   -8487.9183    1711.1842   0.67684471   0.43893685    1.2143442  -0.25320921   0.25614863   0.33215054   0.10384689 
   98800        98739    260.71951    840.11939    1714.1758   0.67566348   0.44302503    1.2155545  -0.25707987   0.26999562   0.32068419    0.1094251 
   98850        98789    243.91074   -1292.7881    1717.1888   0.67447793   0.49549331    1.2182172  -0.24534322   0.27577914   0.37034155   0.09471584 
   98900        98839    250.76249   -2656.2215    1720.2092   0.67329368    0.4723042    1.2153303  -0.27703996   0.28806059   0.36011118   0.10117239 
   98950        98889    267.75234    6930.6635    1719.4993   0.67357165   0.41579818    1.2091663  -0.23292558   0.22040092   0.35657597  0.071746871 
   99000        98939     245.8757   -4060.5948    1722.4311   0.67242513   0.47922763    1.2077738  -0.24302301   0.23966587   0.38160208   0.10098269 
   99050        98989    262.49665    7155.0326    1727.3491   0.67051064   0.42934648    1.2071417  -0.23549725   0.24265106   0.34782271  0.074369963 
   99100        99039    251.68741    637.13627    1735.8451   0.66722889   0.46295982    1.2087265  -0.23575544   0.21239609   0.40286129  0.083457876 
   99150        99089    260.31917    261.75999    1744.9493   0.66374764   0.44020374    1.2115469  -0.25381516   0.24589696   0.36363303   0.08448891 
   99200        99139    270.23594   -101.13332    1751.1081   0.66141318   0.41096922    1.2116965  -0.24345326   0.24309907   0.33091928  0.080404124 
   99250        99189    242.46164   -3522.5657    1756.7431    0.6592916   0.49423023    1.2126603  -0.23983617   0.26403868   0.38666905  0.083358677 
   99300        99239     242.2129    3932.7031    1761.0221   0.65768961   0.49674085    1.2144339  -0.24337342   0.28267585   0.36160886  0.095829559 
   99350        99289    223.57271   -3726.8258    1765.5971   0.65598543   0.55388981    1.2163508  -0.22360285   0.28208658   0.39679714   0.09860894 
   99400        99339    254.52297    2710.7468     1772.185   0.65354689    0.4619526    1.2161212    -0.232721   0.27891735   0.34482894  0.070927314 
   99450        99389    241.16809    3016.5311    1781.0503    0.6502938   0.50203373     1.216631  -0.23247066   0.27768132   0.38179134  0.075031728 
   99500        99439    252.25287    752.26594    1789.2676    0.6473073   0.46926769    1.2167099  -0.24355021   0.26980016   0.36434188  0.078675856 
   99550        99489    249.26236    2017.7768     1794.981   0.64524693   0.47723648    1.2158176  -0.22878347   0.30271228   0.32879252  0.074515151 
   99600        99539    247.63752    3275.6157    1799.9523    0.6434648   0.48340481    1.2171714  -0.22486365   0.26232248   0.35854082  0.087405153 
   99650        99589    264.14669   -2296.8512     1806.207   0.64123658   0.43834085    1.2210252  -0.23314409   0.26075316   0.33356527  0.077166512 
   99700        99639    252.27484    4683.5556    1813.5263   0.63864857   0.47691967    1.2244269  -0.22168887   0.24796746   0.36967869  0.080962397 
   99750        99689    258.03115   -5706.1474    1819.3149   0.63661654   0.46205884    1.2266224    -0.246297   0.26493189   0.35608891  0.087335026 
   99800        99739    284.77915    1157.1555    1819.5651   0.63652903   0.38112233    1.2249421  -0.21911916   0.23897387    0.2995773  0.061690323 
   99850        99789    241.80344    -4662.202     1819.289   0.63662559   0.51182856    1.2283084  -0.21753558   0.29217757   0.34974792  0.087438645 
   99900        99839    247.33836    1977.8407    1818.2492   0.63698966   0.49765128    1.2305314  -0.23867104   0.31440634   0.33611745  0.085798535 
   99950        99889    260.23447   -2033.0875    1816.1264   0.63773423   0.46011771    1.2312099  -0.23076666    0.2807988   0.31926808  0.090817487 
  100000        99939    272.68157    3246.3944    1813.0975    0.6387996   0.42467941    1.2326532  -0.24064801   0.25366306   0.32973348  0.081930887 
  100050        99989    265.77759   -1353.2605    1808.8693    0.6402928   0.44830835    1.2358252  -0.23254663   0.28897527   0.31191223  0.079967486 
  100100       100039    255.10634    1794.2577    1803.0179   0.64237075    0.4812049    1.2371021  -0.24722904    0.3066366   0.34214781  0.079649518 
  100150       100089    258.92642    1700.2868    1795.5228   0.64505222   0.46587801    1.2330944  -0.23915255   0.27966701   0.34740453  0.077959005 
  100200       100139    257.73783   -2861.5708    1786.6722   0.64824759   0.46645384    1.2301483  -0.23934563   0.28559499   0.34499252  0.075211966 
  100250       100189    268.31077     1992.259    1778.2818    0.6513062   0.43105341    1.2260762  -0.24919281   0.27364469   0.32968299  0.076918547 
  100300       100239    254.38694   -2150.7192    1771.1544   0.65392718   0.47292529    1.2266909  -0.21234747   0.25937302   0.34598489  0.079914851 
  100350       100289    263.84648    13.512287    1767.7462   0.65518791   0.44470654    1.2265014  -0.24773757   0.27083053   0.34957418  0.072039409 
  100400       100339    262.56682   -292.24543    1763.4839   0.65677151   0.44551434    1.2235175  -0.24189707   0.25844215   0.35032709  0.078642157 
  100450       100389    265.70228    518.19043    1758.4419   0.65865466   0.43365014    1.2209438    -0.241213    0.2754328   0.33274996  0.066680383 
  100500       100439    253.76825    5659.6461    1755.2378     0.659857   0.46755675    1.2194891  -0.21776767   0.27250908   0.32784936  0.084965977 
  100550       100489    270.49677    4238.1747    1755.5039   0.65975699   0.41843988      1.21994  -0.25539608   0.22766681   0.36275165  0.083417501 
  100600       100539    266.29254    2343.4946    1755.8014   0.65964521   0.42999071    1.2190334  -0.22608198   0.24634639    0.3365202  0.073206102 
  100650       100589    263.03894    3861.8918    1760.6737   0.65781975   0.43950386    1.2189059  -0.24875826   0.27064439   0.33042841  0.087189309 
  100700       100639    257.81207   -5226.8702    1765.2974   0.65609679   0.45717129    1.2210857  -0.23658679   0.28713844   0.32438398  0.082235666 
  100750       100689    256.63847    342.83993    1771.1398   0.65393254   0.46066713    1.2211042  -0.25734405   0.28032837   0.33503292   0.10264989 
  100800       100739    260.51778   -2042.0522    1773.3901   0.65310278   0.44919442    1.2211261   -0.2295078   0.24898961   0.32908575   0.10062687 
  100850       100789    271.51956   -2846.3884    1774.6957   0.65262229   0.42003037    1.2245611  -0.24923369    0.2715047   0.31533861   0.08242075 
  100900       100839    246.34978    -1563.823    1773.7752   0.65296095   0.49574737    1.2256983  -0.23681974   0.30584177   0.34185284  0.084872497 
  100950       100889    259.12663    844.22285    1773.2997   0.65313604   0.46048313    1.2282927  -0.21939717   0.27492083   0.32869462  0.076264836 
  101000       100939    239.20671    3298.1989    1777.2721   0.65167621   0.52050763    1.2292932  -0.24795179   0.29860596   0.36775377    0.1020997 
  101050       100989    239.44865    693.73177     1777.566   0.65156846    0.5240109    1.2335133  -0.21753245   0.30294778   0.35539342  0.083202153 
  101100       101039    258.06908    1084.0383     1778.535   0.65121349   0.47151389    1.2361899  -0.23100232   0.29647056   0.34513001  0.060915641 
  101150       101089    247.51872    1198.4767    1779.0084    0.6510402   0.50185604    1.2352706  -0.23298462    0.3105447   0.33896706  0.085328906 
  101200       101139    253.37749   -4086.2924    1778.2538   0.65131647    0.4802619    1.2310364  -0.23832669   0.28794125   0.35138907  0.079258271 
  101250       101189    258.69775    2235.2728    1775.6336   0.65227757   0.46354459    1.2300834  -0.20955399   0.24045325   0.35050752  0.082137803 
  101300       101239    258.44775   -2766.4573    1774.4184   0.65272429    0.4678806    1.2336786  -0.24633411   0.24286309   0.39346987  0.077881747 
  101350       101289    270.04939   -1406.1579    1770.3942   0.65420796     0.435111    1.2352855  -0.23845427   0.25740812   0.35653694  0.059620214 
  101400       101339    249.61879    -91.57361    1767.2256   0.65538095    0.4954763    1.2351135  -0.25893326   0.28533938   0.39203306   0.07703712 
  101450       101389    247.86472    2990.4052    1760.3816   0.65792893   0.50123754    1.2356774  -0.23767412   0.29559855   0.36920218  0.074110933 
  101500       101439    259.43813    650.97833    1755.4462   0.65977867   0.46712861    1.2358612  -0.25237726   0.31841268   0.33657674   0.06451645 
  101550       101489    252.99826    1869.7834    1752.5741   0.66085992   0.48661656    1.2362674  -0.23714741   0.30593044   0.35128305  0.066550484 
  101600       101539    255.68533   -3178.7748    1752.2075   0.66099819   0.47733192    1.2349447  -0.25339684   0.32773056   0.31096931  0.092028886 
  101650       101589    271.18194   -98.146448    1751.8542   0.66113149   0.42961329    1.2331436  -0.26310457   0.30093848   0.30777468   0.08400471 
  101700       101639    267.44539   -2827.2229     1749.035   0.66219713   0.43910031    1.2315589  -0.24622616   0.28572929   0.32275131  0.076845871 
  101750       101689    259.68984   -400.72234    1748.1603   0.66252847   0.46059865    1.2300771  -0.24983531   0.28387371   0.32770585  0.098854408 
  101800       101739    238.41661   -2085.9069    1746.4186   0.66318921   0.52727492    1.2337193  -0.23539879   0.28082061   0.39134553  0.090507562 
  101850       101789    248.83853     3161.616      1742.85   0.66454713   0.49795833    1.2352836  -0.26016935   0.29955282    0.3742002  0.084374659 
  101900       101839    269.45934    2656.0107    1738.5782   0.66617996   0.43396653    1.2323926   -0.2494907    0.2774815   0.34203165  0.063944077 
  101950       101889    266.31252   -972.19586    1735.1477   0.66749705   0.43816046    1.2272623  -0.26793898   0.28251694   0.33958169   0.08400081 
  102000       101939    261.52356    2680.1637    1730.8862   0.66914046   0.45090855    1.2258204  -0.23848389   0.26932037   0.34672719  0.073344882 
  102050       101989    252.30688   -3701.7518     1730.906   0.66913281   0.47644929    1.2240515  -0.24298992   0.25847555   0.37259438  0.088369277 
  102100       102039    273.86876    2026.1623    1730.5216   0.66928142   0.41014116    1.2216327  -0.23926647   0.26874824   0.29860658   0.08205282 
  102150       102089    268.52261   -1151.2372    1730.7279   0.66920163   0.42640241    1.2220529  -0.26505372   0.25265166   0.36228612  0.076518347 
  102200       102139    258.36447   -526.85197    1726.6186   0.67079433   0.45247047    1.2180217  -0.25936716   0.26417682   0.34893629  0.098724516 
  102250       102189    250.59994    2259.3064    1720.9135   0.67301812   0.47562456     1.218169  -0.25211287   0.28483471    0.3628372  0.080065527 
  102300       102239    248.76441   -1215.6416    1714.7185   0.67544964   0.47840085    1.2155065  -0.27374909   0.29789591   0.36379393  0.090460095 
  102350       102289    267.06434    4820.2403    1707.8436   0.67816863   0.41935018    1.2106798  -0.24946496   0.24764608   0.35334405  0.067825013 
  102400       102339    286.03452    1732.2741    1703.4279   0.67992663   0.36112508    1.2086646  -0.26412165   0.23932788   0.30778065    0.0781382 
  102450       102389    269.55992   -897.79682    1700.2421    0.6812006   0.41065382     1.209378  -0.26676923   0.26009648   0.34680462  0.070521945 
  102500       102439    254.98559    2246.4813    1699.0332    0.6816853   0.45361672    1.2091561  -0.25198645   0.27191334   0.34957153  0.084118288 
  102550       102489    245.96308   -3495.4395    1700.2143   0.68121175   0.48169512    1.2105003  -0.25443521   0.28121734   0.35996574  0.094947257 
  102600       102539    259.23097    1269.5208    1701.6045   0.68065523   0.44387246    1.2119912  -0.25883481   0.28931672    0.3299501  0.083440461 
  102650       102589    268.26494   -2415.4691    1703.3371   0.67996286   0.42022964    1.2151167  -0.26830718   0.30759272    0.3056655  0.075278594 
  102700       102639    243.42562    1610.1707    1704.8353    0.6793653   0.48855963    1.2098461  -0.27154168   0.28541741   0.37354734   0.10113655 
  102750       102689    262.52423    326.97465    1704.4582   0.67951564   0.42921851    1.2070954  -0.24545347    0.2503593   0.32700613  0.097306551 
  102800       102739    278.76002    4262.0872    1706.1155   0.67885556   0.38004722    1.2060319  -0.27856834   0.21481873   0.36371434  0.080082488 
  102850       102789     266.5859   -120.08201    1706.8785    0.6785521    0.4151721     1.205084  -0.24142971   0.21549819   0.34801489  0.093088723 
  102900       102839    267.82368    3661.2868    1711.6086   0.67667689   0.41635525    1.2099348  -0.26700983   0.25877737   0.34598148  0.078606232 
  102950       102889     232.8559   -1696.2383    1716.8788   0.67459974   0.51995051    1.2099182  -0.25219902   0.31311374    0.3782117  0.080824094 
  103000       102939    237.00839   -2546.3227    1724.1336   0.67176116   0.50793125     1.210203  -0.27265147    0.3153978   0.35463613   0.11054879 
  103050       102989    236.97537    2817.9177    1731.8358   0.66877355   0.51083634    1.2130103  -0.24755947   0.31875123   0.34556081  0.094083775 
  103100       103039    254.52098   -2558.8551    1740.5787   0.66541432   0.45966042    1.2138232  -0.26263363   0.29456874   0.34184794  0.085877371 
  103150       103089    254.11427    6719.4295     1749.262   0.66211122   0.45932593    1.2122836  -0.24018767   0.29272767   0.32334956  0.083436369 
  103200       103139    249.84901   -6300.3336    1759.1425   0.65839234   0.47019023    1.2105096  -0.25475412    0.2735051   0.34850315    0.1029361 
  103250       103189    264.89764    2039.6747    1767.7347   0.65519219   0.42872819    1.2136377  -0.25976134    0.2569275   0.33207981  0.099482222 
  103300       103239     265.6477   -3555.6815    1772.5494    0.6534125   0.42892696    1.2160589  -0.25156006   0.25361048   0.33799907  0.088877476 
  103350       103289    252.96945    1879.0622    1773.4839   0.65306821   0.46694973    1.2165152  -0.23850218   0.24133082   0.38320465  0.080916437 
  103400       103339    267.49187    583.14854    1772.3664   0.65347998   0.42573524    1.2183316  -0.23289001   0.25159253   0.33331623  0.073716487 
  103450       103389    255.58772   -2620.9536    1771.1988   0.65391076   0.46216043     1.219484  -0.25295537   0.26812744   0.36728369  0.079704666 
  103500       103439    251.10102   -1432.6954    1768.2547   0.65499952   0.47841573    1.2224449  -0.24712954   0.28699435   0.33799886   0.10055207 
  103550       103489     251.1416    4188.5538    1764.6459   0.65633902   0.48163314    1.2257826  -0.24926182   0.28196448   0.36141659  0.087513888 
  103600       103539    244.96783    -2703.705    1759.3233    0.6583247   0.50080532    1.2266614  -0.25852711   0.28693609   0.39351926   0.07887707 
  103650       103589    265.20653    3975.4056    1752.7957   0.66077637   0.43910777    1.2249325   -0.2507557    0.2660274    0.3345629  0.089273175 
  103700       103639    259.60007    937.08067    1747.6878   0.66270759   0.45663681    1.2258492  -0.25959076   0.28272445   0.34943319  0.084069932 
  103750       103689    256.40886   -5917.4526    1742.9167   0.66452169   0.46654308    1.2262997  -0.25188813   0.31982723   0.32220161   0.07640238 
  103800       103739    268.88299    5469.8084    1738.3917   0.66625144   0.42760757    1.2243259  -0.24603606   0.28403689   0.30899855  0.080608183 
  103850       103789    265.00169   -5016.7885    1735.2132   0.66747185   0.43608829    1.2213061   -0.2735927   0.26825918    0.3750286  0.066393208 
  103900       103839    258.59377    2852.5726    1729.6997   0.66959945   0.45139912    1.2176298  -0.24546517    0.2787108   0.35136523  0.066788268 
  103950       103889    248.48801   -1461.7794    1725.4311   0.67125599   0.47840072    1.2146874  -0.25292476   0.27568051   0.37913084  0.076514119 
  104000       103939    269.80043    1137.0724    1722.1428   0.67253769   0.41286426     1.212301   -0.2432012    0.2309808    0.3569228  0.068161869 
  104050       103989     246.8533    2701.3543    1721.7072   0.67270785   0.48250586    1.2139488  -0.22969608   0.23410867   0.40102099  0.077072272 
  104100       104039    253.70009    3084.0555    1724.1953   0.67173711   0.46341196    1.2151424  -0.26957595   0.27845574   0.36920848  0.085323685 
  104150       104089    249.18544   -3714.3508    1726.2242   0.67094758   0.47630825    1.2146614  -0.24450782   0.28202331   0.36899282  0.069799929 
  104200       104139    255.44155    5777.2731     1728.089   0.67022355   0.46023769    1.2171281  -0.25136216   0.26946744   0.34959408  0.092538333 
  104250       104189    257.51571   -1790.7412    1729.6663   0.66961238   0.45685983    1.2198962  -0.26199815   0.27607728   0.34941865  0.093362049 
  104300       104239    277.83041    4624.5748    1730.8192   0.66916637   0.40033203    1.2235622  -0.25334776   0.26475913   0.32466094  0.064259717 
  104350       104289    258.39686   -5068.8062    1731.1281   0.66904694   0.45507974     1.220727   -0.2834966   0.32598719   0.31964746  0.092941684 
  104400       104339    255.09508   -4412.5899    1726.0441   0.67101762   0.45921754    1.2150814  -0.24212506   0.28884734   0.33941282  0.073082442 
  104450       104389    253.78859    5073.3842    1720.6915   0.67310496   0.46472981    1.2167224  -0.24331061   0.27971267   0.34203408  0.086293675 
  104500       104439     259.7494   -1763.9085    1717.9259   0.67418856   0.44900757    1.2186625  -0.24594437   0.27382731   0.34089681   0.08022782 
  104550       104489    273.20149    1025.2505    1717.3068   0.67443159   0.40956354    1.2190779  -0.25093862    0.2531469   0.33647786  0.070877402 
  104600       104539    250.80407    2861.8151    1717.9838   0.67416582   0.47351892    1.2166682  -0.25124376   0.24481338   0.39046424  0.089485063 
  104650       104589    257.51912   -1239.6809    1721.7324   0.67269802    0.4553926     1.218439  -0.25745338   0.27919099   0.35989378  0.073761208 
  104700       104639    264.92341    5453.7223    1727.0971    0.6706085   0.43138349    1.2163693    -0.248107   0.25177698   0.34481663   0.08289689 
  104750       104689    268.22321   -326.21406    1734.1152   0.66789448   0.42239044    1.2171538  -0.25745244   0.28844527   0.30995307   0.08144454 
  104800       104739    257.01311    1873.2234    1741.4288   0.66508949   0.45650411    1.2180512  -0.23330005   0.29574074   0.31855534  0.075508077 
  104850       104789    262.70657    -1361.855    1749.9766   0.66184083   0.43961596    1.2180332  -0.25132779    0.2777131   0.32602854  0.087202107 
  104900       104839    276.34972   -4104.6515    1757.1687   0.65913193   0.39818093    1.2170237  -0.26261779   0.27407809     0.300728  0.085992641 
  104950       104889    255.50178   -1972.6109    1760.8106   0.65776861   0.45857385    1.2156428  -0.26725129   0.29833714   0.33595806  0.091529944 
  105000       104939    250.18722    2392.6478    1760.7639   0.65778607   0.47569596    1.2170175  -0.22797516   0.27540657   0.34118928  0.087075259 
  105050       104989    262.22641    -3622.857    1761.7895   0.65740316   0.43955841    1.2165529  -0.25974023   0.24512365   0.36572537  0.088449615 
  105100       105039     256.2174    7619.8754     1760.713   0.65780509   0.46008339    1.2192727  -0.23440102   0.24071243   0.36608567  0.087686307 
  105150       105089    265.29809   -4939.5007     1761.295   0.65758771   0.43396532    1.2200614  -0.25666663    0.2605127    0.3478673   0.08225196 
  105200       105139    275.85486    3491.0034    1761.1437   0.65764424   0.40306585    1.2204423  -0.25975319   0.24753149   0.32266039   0.09262716 
  105250       105189      258.911   -4831.5597    1757.9892   0.65882428   0.45384674    1.2210174  -0.24735304   0.27292662   0.33536098  0.092912184 
  105300       105239    258.49415    2735.1226    1755.8111   0.65964155   0.45642679    1.2223623  -0.25696843   0.25851113   0.36819542  0.086688673 
  105350       105289    271.56745    538.49499    1754.7182    0.6600524   0.41943061    1.2241032  -0.23570482   0.24181059   0.33936322   0.07396163 
  105400       105339     260.2133   -1002.0046    1757.3311   0.65907101   0.45355527    1.2245848  -0.25168562    0.2722977   0.36022854  0.072714654 
  105450       105389    267.71922    2621.0402     1760.876   0.65774422   0.42989018    1.2231602  -0.23523349   0.24419889   0.32815741   0.09276737 
  105500       105439    261.00619   -1988.7829    1766.5325   0.65563808   0.45269078    1.2260697  -0.24474601   0.27139795   0.34769422  0.078344623 
  105550       105489    265.82986    3464.0263    1774.4269   0.65272114   0.44154087    1.2292126   -0.2268966   0.24703378   0.34101044  0.080393253 
  105600       105539    269.78511   -2187.1192     1783.445   0.64942062   0.43209774    1.2314891   -0.2714329   0.27400304    0.3518957  0.077631895 
  105650       105589    261.69865   -262.31918    1785.2943   0.64874793   0.45365904    1.2290897  -0.22820509   0.24835244   0.35501242  0.078499283 
  105700       105639    266.99766   -1686.6258    1785.7279   0.64859041   0.43938338    1.2305154   -0.2437395   0.26780977   0.34866749  0.066645615 
  105750       105689    273.53405    1038.3093    1784.8441   0.64891154   0.42318134    1.2336811  -0.23987069   0.26574461   0.32016026   0.07714716 
  105800       105739    257.16664   -1884.2994    1781.8228   0.65001188    0.4705537    1.2325557  -0.25028809   0.25479942   0.36667951  0.099362867 
  105850       105789    268.53424   -306.19408    1778.0228   0.65140107   0.44051169    1.2361967  -0.22641692   0.23688951   0.34473184  0.085307268 
  105900       105839    257.24053   -6381.4521    1774.2052   0.65280271   0.47687616    1.2390971  -0.24974156    0.2431405   0.40042316  0.083054065 
  105950       105889    266.72422    7460.8541     1769.055   0.65470322   0.45151533    1.2418371  -0.23169166   0.26467669   0.34104263  0.077487667 
  106000       105939    271.62947   -7580.3193    1766.1337   0.65578611   0.43813219    1.2429886   -0.2443161    0.2752822   0.32831378  0.078852317 
  106050       105989    271.08253    6787.5708    1762.6079    0.6570979   0.43684048    1.2400762    -0.256227   0.25340049   0.36402218  0.075644808 
  106100       106039    251.84126   -5788.1606    1758.1855   0.65875074   0.49041935    1.2366419   -0.2670018   0.26431546    0.4023897  0.090715993 
  106150       106089    251.52509    3241.4795    1752.5565   0.66086655   0.49092904    1.2362148  -0.23662379   0.23170527   0.41978097   0.07606659 
  106200       106139    262.67753   -2082.3852    1750.2128   0.66175153   0.45676054    1.2350917  -0.27007867   0.24753777   0.40112748  0.078173967 
  106250       106189    270.98009    2281.7243    1745.3117   0.66360982   0.42678642    1.2297186  -0.23994927   0.21636744   0.36324101  0.087127237 
  106300       106239     266.1274   -4826.5489    1741.0502   0.66523411   0.44170728    1.2302606  -0.25469607   0.29497221   0.33498452  0.066446619 
  106350       106289    267.00327    697.69429    1737.2914   0.66667342   0.43916019    1.2303088  -0.23559808   0.29002553   0.29114329   0.09358944 
  106400       106339    260.94772   -3908.7409    1734.7571   0.66764736    0.4580833    1.2312889  -0.23470195   0.23900022    0.3663779  0.087407133 
  106450       106389    272.64955    2133.3151    1734.5828   0.66771444   0.42305236    1.2309313  -0.23687324   0.26933068     0.326067  0.064527927 
  106500       106439    249.61839    2122.1776    1735.9633   0.66718343   0.48622705    1.2258631  -0.22162575   0.24423029   0.36432801  0.099294504 
  106550       106489    264.98582   -699.72151    1738.1996   0.66632506   0.44226615    1.2274369  -0.23955638   0.22962553   0.37626031  0.075936689 
  106600       106539    272.79439    3824.8497     1741.337   0.66512453   0.41610078    1.2244089  -0.24478528   0.21775323   0.37689224  0.066240591 
  106650       106589    255.72942    -570.5539     1744.277   0.66400347   0.46116646    1.2189099  -0.22879077   0.23542011   0.36739529  0.087141827 
  106700       106639    262.42092    2056.0015    1748.0885   0.66255567   0.44302882    1.2205996  -0.24882488   0.26369868   0.33950419  0.088650836 
  106750       106689    280.75864   -1155.7397    1749.3945   0.66206104   0.38738786    1.2192945  -0.26233898   0.25505006   0.32875397  0.065922808 
  106800       106739    269.53834   -4084.4203    1746.4911   0.66316167   0.41461019    1.2132704  -0.26249531   0.24869793   0.33412868  0.094278888 
  106850       106789    267.37475   -453.63086    1741.4563   0.66507897   0.41877505    1.2110244  -0.24583668    0.2365961   0.35366769  0.074347934 
  106900       106839    253.96308     248.8157    1737.6576   0.66653292   0.45933617    1.2118458  -0.21968448   0.23015892    0.3887293  0.060132428 
  106950       106889    260.88799   -579.65137    1738.4721   0.66622063   0.43827907    1.2113077  -0.25813615   0.22672416   0.36757423   0.10211683 
  107000       106939    261.05017    5034.8576    1738.3851   0.66625397   0.43893968    1.2124489  -0.24325768    0.2409555   0.37399063  0.067251234 
  107050       106989    259.25371   -5869.6068    1741.0103   0.66524936   0.44573215    1.2139183  -0.22822182   0.26996482   0.32861908  0.075370063 
  107100       107039    262.12355    5471.4459    1747.2653   0.66286784   0.43793303    1.2146227  -0.22529454   0.25184022   0.32974645    0.0816409 
  107150       107089    278.19288   -446.49412    1755.9925   0.65957343   0.39389057    1.2181948   -0.2373894   0.23227845    0.3402131  0.058788412 
  107200       107139    257.29312    2760.5162     1762.538   0.65712398   0.45479368    1.2171705  -0.27178796   0.28598587   0.37438114  0.066214631 
  107250       107189    267.18068    -1050.758    1763.1914   0.65688047   0.41833043    1.2100047  -0.24435178   0.24699837   0.33734396  0.078339881 
  107300       107239    265.30055    371.75774     1761.078   0.65766876   0.42126697    1.2073703  -0.23914501   0.23308803   0.35162554  0.075698405 
  107350       107289    264.53035    363.78379    1756.9611    0.6592098   0.42070404    1.2045252  -0.23187585   0.20897161   0.36727657  0.076331713 
  107400       107339    275.29021   -387.04495    1751.2406   0.66136313   0.38840263     1.204106  -0.24503383   0.22992425   0.33722629  0.066285906 
  107450       107389    263.50494   -402.23456    1744.3655   0.66396977   0.41966227    1.2004451    -0.252409   0.24676261    0.3696326   0.05567606 
  107500       107439     265.2653   -3352.3224    1735.7391   0.66726961      0.41093    1.1969289  -0.25784496   0.25605489   0.33389369  0.078826384 
  107550       107489     249.7561    117.22973    1725.7933   0.67111511   0.45572512    1.1957692  -0.23002401   0.25071394   0.35991372  0.075121478 
  107600       107539    237.64971    1553.9605    1718.5104   0.67395926   0.49603097     1.200203  -0.24677683   0.29324469   0.37059933  0.078963771 
  107650       107589     258.2212    3093.8756    1714.9631   0.67535329   0.43604106    1.2011678  -0.26095043   0.25514298   0.35989399   0.08195452 
  107700       107639    245.01366   -1189.2512    1712.0232     0.676513   0.47357578    1.1995677  -0.23577616   0.28234159   0.35387146  0.073138886 
  107750       107689    269.74507    2106.1445    1712.5284   0.67631343   0.39964394    1.1989167  -0.25945941   0.23959384   0.36317667   0.05633284 
  107800       107739    242.87353   -3040.9456    1715.5142   0.67513634   0.47985364    1.1995042  -0.25022379   0.29468578   0.34635714  0.089034506 
  107850       107789    256.79756   -315.53142    1719.9844   0.67338166   0.43816716    1.1990756  -0.24504289   0.24968371   0.37189272  0.061633618 
  107900       107839    261.35483    2444.9776    1725.3039   0.67130547   0.42289424    1.1973061  -0.23297739    0.2466718   0.34807969  0.061120137 
  107950       107889    264.11895    779.72318     1733.629   0.66808179   0.41513392    1.1977361  -0.23324978   0.22289083   0.34605569   0.07943718 
  108000       107939    273.77662    1293.7919    1741.9771   0.66488013   0.38863862    1.1998571  -0.23149449    0.2238959   0.32762078  0.068616426 
  108050       107989    265.04684    1994.7783    1751.8059    0.6611497   0.41792484    1.2032764  -0.22716721   0.25633557   0.33433753   0.05441895 
  108100       108039    276.04661   -2701.3225    1762.3789   0.65718331   0.38212048    1.2000651  -0.24855545   0.24027517    0.3191144  0.071286362 
  108150       108089    260.73287   -340.28884    1769.6869   0.65446942   0.42727531    1.1998443  -0.24997441    0.2301445   0.38527138  0.061833831 
  108200       108139    257.54461   -3414.3545    1773.1878   0.65317727   0.43753179    1.2006537   -0.2541464    0.2547774   0.35836688  0.078533906 
  108250       108189    241.57085    2099.9408    1771.4977   0.65380045   0.48835976    1.2041504  -0.23399315   0.28494164   0.37551409  0.061897184 
  108300       108239    240.05596    154.75171    1769.0916   0.65468965    0.4956698    1.2069717  -0.23320381   0.30380247   0.34450607  0.080565065 
  108350       108289    260.85593     3795.238    1766.9243    0.6554927   0.43894821    1.2118818  -0.24183626   0.28360794    0.3265986  0.070577932 
  108400       108339    259.77655    -2672.428      1764.95   0.65622593   0.44332346    1.2130588  -0.22497357   0.25059779   0.35853186  0.059167387 
  108450       108389    289.32919   -599.21866    1764.3191   0.65646058   0.35341659    1.2107184  -0.26396749    0.2409763   0.31053745  0.065870328 
  108500       108439    280.88615   -5863.5156    1759.2754   0.65834261    0.3735904    1.2058749  -0.24656654   0.23452956   0.32057712  0.065050255 
  108550       108489    278.06617    5264.6751    1752.7088   0.66080912    0.3764596    1.2003883  -0.25041209    0.2408518   0.31600999  0.070009902 
  108600       108539    271.24013   -6306.6212    1746.8318   0.66303236   0.39936328     1.203066   -0.2486221   0.27067701     0.304119  0.073189374 
  108650       108589    273.05634     715.9756    1741.7759   0.66495693   0.39340643    1.2024907  -0.24577192   0.25588098    0.3150999  0.068197472 
  108700       108639     273.0962   -1273.2152    1737.1773   0.66671718   0.39268161     1.201884    -0.257397   0.24834096   0.34383462  0.057903033 
  108750       108689    256.21798   -1588.6225    1732.7123   0.66843525   0.43946291     1.198654   -0.2732849   0.28047541   0.36897311   0.06329929 
  108800       108739    256.98167    3283.9896     1727.579   0.67042142    0.4341055    1.1955594  -0.25423434    0.2823541   0.32974222  0.076243514 
  108850       108789    251.26951   -5342.6608    1725.2613   0.67132207   0.45080067    1.1953291  -0.25207154   0.26303405   0.35800209   0.08183607 
  108900       108839    279.88442    3852.4206     1721.447   0.67280953   0.36682231    1.1961386   -0.2582173   0.22982328   0.34107397  0.054142358 
  108950       108889    260.43836   -1728.4546    1719.9635   0.67338986   0.42254076    1.1942371  -0.25253125   0.25242879   0.36079082  0.061852402 
  109000       108939    258.20103    2075.3171    1719.1296   0.67371649   0.43188588    1.1969529  -0.22273936   0.25073971   0.33712642  0.066759113 
  109050       108989     285.5927    1004.0276    1723.5079   0.67200503   0.35485946    1.2010898  -0.25718724   0.23557808   0.31104665  0.065421967 
  109100       109039    257.27738   -1259.3797    1729.1304   0.66981989   0.44094489    1.2032751  -0.23615234   0.25740527   0.35433358  0.065358376 
  109150       109089     288.3219    2211.3357     1736.162   0.66710707   0.34988603    1.2042032  -0.25585911   0.23190817   0.30751759  0.066319384 
  109200       109139    247.77079    239.33253    1742.9511   0.66450858   0.47137378    1.2055353  -0.23894378   0.25979838   0.37847147  0.072047709 
  109250       109189     271.4686    -2030.541     1749.616   0.66197724   0.40507026    1.2094499  -0.23584623   0.26058642    0.3231895  0.057140576 
  109300       109239    283.39493    1931.2733    1757.3487   0.65906439   0.37019778     1.209916  -0.26293781    0.2446498    0.3185047  0.069981086 
  109350       109289    259.80232   -3155.8144    1762.0194   0.65731739   0.44187025     1.211682  -0.23595164   0.26535089   0.33914507  0.073325935 
  109400       109339    258.48654    1764.2926     1767.511    0.6552751   0.44888962    1.2148026  -0.24692422   0.23319888   0.39127459  0.071340362 
  109450       109389    247.84648     2559.114    1771.2056   0.65390826   0.48160762    1.2159934   -0.2500355   0.27558442   0.38105895  0.074999748 
  109500       109439    250.27364   -5279.7428    1773.0889    0.6532137    0.4768736    1.2184512  -0.25450202    0.2972207   0.34614111  0.088013807 
  109550       109489    265.11481    4819.5743     1771.595   0.65376451   0.43420259    1.2197556  -0.25298532   0.28782777   0.34391654  0.055443604 
  109600       109539    251.74792   -3726.0541    1768.3045   0.65498108   0.47064585    1.2165918  -0.23854981   0.29618032   0.35864986  0.054365473 
  109650       109589    253.49569    2403.3323    1767.0087   0.65546138   0.46597488    1.2170996  -0.23887637   0.27887826   0.36836216  0.057610831 
  109700       109639    247.08449     5704.921     1767.101   0.65542715   0.48650063    1.2186286  -0.23769795   0.24817518   0.41175493  0.064268474 
  109750       109689    252.83873   -2382.4453     1768.111   0.65505275   0.47015944    1.2193376  -0.24455156   0.26210596   0.38261107  0.069993964 
  109800       109739    256.92891     2677.877    1768.0186   0.65508696   0.45617516    1.2174728  -0.24942915   0.25744094   0.37876799  0.069395368 
  109850       109789    259.37847   -2475.9701    1767.3383   0.65533915   0.44672132    1.2152771  -0.22717198    0.2062326   0.40252204  0.065138653 
  109900       109839    247.99319    4231.5605    1768.5697   0.65488286   0.48185745    1.2166779  -0.23862795   0.23185639    0.4023701  0.086258902 
  109950       109889    238.27364    4473.7667    1771.3357   0.65386023   0.51467189    1.2206927  -0.23168818   0.24945304   0.41774497  0.079162052 
  110000       109939    264.31263   -1703.6365    1774.5272   0.65268425   0.44076762    1.2239437  -0.25793849    0.2467872   0.37669183   0.07522708 
  110050       109989    248.30397    3512.9153    1775.9415    0.6521645   0.48996134    1.2257027  -0.23932523   0.25052012   0.41288365    0.0658828 
  110100       110039    248.12475   -2404.8469    1777.8584   0.65146132   0.49148743    1.2266977  -0.24731894    0.3015945   0.37474048  0.062471384 
  110150       110089    249.01727    2789.2561    1778.5263   0.65121666   0.48453482    1.2223897  -0.27049885   0.26962489   0.41146748  0.073941306 
  110200       110139    246.50494    792.24666    1774.5827   0.65266383   0.48904119    1.2194519  -0.24979922   0.25839677   0.40526923  0.075174414 
  110250       110189    247.61198   -6380.0892    1768.2615   0.65499701   0.48431766    1.2180086  -0.25625181   0.27951412   0.37368929  0.087366063 
  110300       110239     259.5824    1671.0295     1759.786   0.65815159   0.44820526    1.2173653  -0.22914634   0.24015667   0.37898212  0.058212815 
  110350       110289    256.88805   -1927.5487    1753.5156   0.66050509   0.45652099    1.2176975  -0.25514733   0.25095755   0.39355112  0.067159651 
  110400       110339    253.18162     860.1807    1747.2558   0.66287146   0.46524919    1.2154433  -0.21945129   0.25792277   0.35805995  0.068717751 
  110450       110389    251.25204    6883.6757    1745.9023   0.66338532   0.47294984    1.2174265  -0.24501934   0.24659175    0.3935733  0.077804127 
  110500       110439      254.163   -2250.0205    1747.1223    0.6629221   0.46518612    1.2182882  -0.23477709   0.22866045   0.41010933  0.061193439 
  110550       110489    274.39905    3211.6026    1750.7517   0.66154783   0.40670065    1.2197635  -0.25281323   0.24996166   0.34389908  0.065653155 
  110600       110539    268.36867   -3142.6253    1755.7866   0.65965077   0.42448209    1.2196765  -0.25428789   0.25602633   0.35202161   0.07072204 
  110650       110589    258.78991    118.08307    1760.1373   0.65802026   0.45417294    1.2209848  -0.23570933   0.26573639   0.35029533  0.073850548 
  110700       110639    247.22539     497.5373    1765.7507   0.65592837   0.48835767    1.2209031  -0.24659567     0.261188   0.37796116  0.095804175 
  110750       110689    248.75261   -4828.0641    1771.1485   0.65392933   0.48700793    1.2240786   -0.2401283    0.2967188   0.35506329  0.075354154 
  110800       110739    255.86073   -689.91778    1777.7115   0.65151514   0.46845531    1.2265878  -0.23681173   0.28136511   0.34469332  0.079208613 
  110850       110789    251.94525    3379.1969    1782.9711   0.64959323   0.48261643    1.2291471  -0.24869891   0.26899948   0.36851632  0.093799537 
  110900       110839    253.55683     324.3595    1785.2096   0.64877872   0.47855482    1.2298607  -0.23353755   0.26003419   0.37791216  0.074146017 
  110950       110889     242.2502    5194.4042     1785.339   0.64873167   0.51209556    1.2298992  -0.23262604    0.2732904    0.3880982  0.083332993 
  111000       110939     259.8598   -5489.8186    1782.9956   0.64958431   0.46107625    1.2310583   -0.2314989    0.2504278   0.36005868  0.082088682 
  111050       110989    270.16019    5093.4456     1781.195   0.65024096   0.43191651    1.2324193  -0.22921808   0.25716703   0.32069747  0.083270082 
  111100       111039    273.76997   -2141.1877    1780.5236   0.65048616   0.42299395    1.2341927  -0.24340038   0.21567326   0.36978347  0.080937595 
  111150       111089    275.61003   -2201.9044    1776.7494   0.65186795   0.41947349    1.2361245  -0.23477537   0.25484381   0.33183332  0.067571726 
  111200       111139    242.21309      -1222.6    1774.0822   0.65284798   0.52059709    1.2382907  -0.23414711   0.28355136   0.39157588  0.079616956 
  111250       111189     270.4217   -1914.0463    1769.8679   0.65440251   0.43797715    1.2392548  -0.24395627   0.28270314   0.32535159  0.073878693 
  111300       111239    267.48593    -803.8502    1766.1394   0.65578401    0.4458985    1.2384773  -0.24541582   0.24764332   0.36997755   0.07369346 
  111350       111289    260.09067    4051.3936    1762.8639   0.65700248    0.4655647    1.2362308  -0.24749896   0.25919712   0.38227861  0.071587924 
  111400       111339    263.86223    -65.68895    1758.1666   0.65875781    0.4545191    1.2363606  -0.23072217   0.26742952   0.35341677  0.064394983 
  111450       111389    257.01778    3069.8689    1757.3674   0.65905738   0.47476798    1.2363289  -0.23090388   0.26295627   0.36379656  0.078919018 
  111500       111439    257.77022   -4525.6248    1757.5007    0.6590074   0.47329593    1.2370864  -0.20877246   0.28606289   0.32871779  0.067287715 
  111550       111489    268.82219     2774.372    1762.5795   0.65710849   0.44098325    1.2375214  -0.23847731   0.25566544   0.35997498  0.063820141 
  111600       111539    259.14872   -1904.1224    1769.8985   0.65439118   0.46630303    1.2341781  -0.24178567   0.25302604   0.38461883  0.070443842 
  111650       111589    249.32419   -1145.8994    1773.6376   0.65301164   0.49572816    1.2344925  -0.24054649   0.27187635   0.39453992  0.069858391 
  111700       111639    269.64227    2277.5549    1775.7538    0.6522334   0.43109597    1.2300641  -0.24477666    0.2565635   0.35150968  0.067799458 
  111750       111689     249.5892   -2981.4652    1775.2985    0.6524007   0.48858435    1.2281339   -0.2510713   0.26945138   0.40410503  0.066099235 
  111800       111739    262.38622    8614.7411    1773.8689   0.65292648   0.44928457    1.2267526  -0.23569191    0.2738492   0.35009974   0.06102754 
  111850       111789    240.70525    -599.7656    1774.9371   0.65253352   0.50897883    1.2222047  -0.23694379   0.26774942   0.40547655   0.07269664 
  111900       111839    264.28829    5873.5303    1776.9944   0.65177805   0.43714629    1.2202502  -0.20841341   0.25475803   0.34667206  0.044129603 
  111950       111889    280.26607   -1399.7579    1783.1904   0.64951334   0.38739552    1.2178427   -0.2436078   0.23578312    0.3345558  0.060664399 
  112000       111939    246.61967    118.79877    1787.7564   0.64785446   0.48649277    1.2172434  -0.22049648   0.24065502   0.38162118  0.084713055 
  112050       111989    253.58439   -275.36305     1792.326   0.64620274   0.46616666    1.2175542  -0.21201763   0.23836254    0.3798531  0.059968643 
  112100       112039    259.73453   -967.03911    1797.8773   0.64420748   0.44648596    1.2160968  -0.22991448   0.23564481    0.3747748  0.065980832 
  112150       112089    250.26682   -2873.1739    1802.0162   0.64272783   0.47635308    1.2179105  -0.21338246   0.22938311   0.41034848  0.050003954 
  112200       112139    257.23205    7570.6402    1806.9298   0.64098007   0.45771804    1.2199139  -0.22495883   0.25590508   0.36030078  0.066471006 
  112250       112189    234.44143   -6311.2073    1810.5737   0.63969005   0.52910765    1.2237733  -0.23245782   0.28637229   0.40158051  0.073612667 
  112300       112239    260.96274    3219.7323    1808.0899   0.64056881   0.44918777    1.2224379  -0.23856674   0.24187904   0.37893024  0.066945231 
  112350       112289    246.07086   -639.06821    1804.0276   0.64201122    0.4929394    1.2220639  -0.23813048   0.26533333     0.413935  0.051801563 
  112400       112339    255.95538     3347.509    1799.5751   0.64359967   0.46264267    1.2210557  -0.21233055   0.24135987   0.37041667  0.063196676 
  112450       112389    271.79663    4044.0501    1799.5111   0.64362258   0.41851457    1.2238662  -0.23523021   0.21221795   0.37306729   0.06845954 
  112500       112439    266.42929    -8956.093      1800.33   0.64332981   0.43483947    1.2242873   -0.2386689   0.25241015   0.35801912  0.063079094 
  112550       112489     264.6578    3187.1837    1798.8482   0.64385975   0.43592244    1.2201213  -0.22471354   0.19674833   0.38841805  0.075469597 
  112600       112539    253.80647   -1010.5696    1797.2053   0.64444833   0.47124075    1.2232864  -0.21776686   0.22749264   0.38354596  0.077969001 
  112650       112589    288.64092   -1100.8785    1793.6772   0.64571596   0.36911363    1.2243761  -0.23928044   0.23738852   0.32079933  0.050206211 
  112700       112639    291.51705   -1722.2904     1788.224   0.64768507   0.35802395    1.2218085  -0.24520117   0.22739999   0.30583559  0.069989548 
  112750       112689    259.61733   -5685.2877    1781.3619   0.65018006   0.45275667    1.2220203  -0.22482512   0.21090057   0.38517792    0.0815033 
  112800       112739    255.27488    628.36525    1775.3539   0.65238034   0.47192056    1.2283172  -0.23606546   0.24600903   0.37896322  0.083013757 
  112850       112789    262.13419    741.69799    1769.3391   0.65459808    0.4540263    1.2307475  -0.24918754   0.28038538   0.36211522  0.060713245 
  112900       112839    256.29624    292.58656    1762.5169   0.65713183   0.46963318    1.2290561  -0.24298889   0.27285753   0.36722502  0.072539509 
  112950       112889    266.90841     3281.503    1757.6675   0.65894488    0.4342816    1.2251491  -0.24180826   0.26163812   0.35157772  0.062874029 
  113000       112939    275.63487    -5382.848    1753.5665   0.66048592   0.40451934     1.221244  -0.23586098   0.22160255   0.37563972  0.043138049 
  113050       112989    263.62572    7208.3062    1750.6554    0.6615842   0.43560413    1.2167448  -0.23088285   0.21240848   0.37784757  0.076230924 
  113100       113039     278.6599    1846.8179    1750.5015   0.66164237   0.39040285    1.2160909  -0.25438694   0.23605991   0.35114778  0.057582098 
  113150       113089     288.3357   -4770.7174    1750.1396   0.66177919   0.35900863    1.2133667  -0.23446289   0.20161308   0.33205468  0.059803757 
  113200       113139    284.16739    1927.2447    1752.7729   0.66078495   0.36665796     1.208665  -0.25060171   0.20260809   0.35607561  0.058575974 
  113250       113189    262.59213    -7031.234    1754.9674   0.65995866   0.43057132    1.2086494  -0.20631776    0.2339237   0.33077845  0.072186932 
  113300       113239    267.53175    7486.9764    1758.1772   0.65875383   0.42020161    1.2129161  -0.23790093   0.22573582    0.3640272  0.068339526 
  113350       113289    259.03924   -3487.5631    1763.3124   0.65683538   0.45000988    1.2175605  -0.23029813   0.26308185   0.36157133  0.055654825 
  113400       113339     273.3631    1697.0114    1769.9956   0.65435528   0.40903501    1.2190282   -0.2254713   0.25422378   0.32448067  0.055801853 
  113450       113389    254.00491    1297.6033    1776.7606   0.65186384   0.46449337     1.217127  -0.23946553   0.24575427    0.4036661  0.054538533 
  113500       113439    258.08281   -1759.3155    1779.2202   0.65096268   0.44912901    1.2138457  -0.23470193   0.24399067   0.38673305  0.053107217 
  113550       113489    260.15285     6198.952     1780.784   0.65039104    0.4411085    1.2119588  -0.24455309   0.25533469    0.3768402  0.053486699 
  113600       113539    231.51533   -961.45845     1780.943   0.65033298   0.52496722    1.2109627   -0.2249733   0.25690883   0.40553375  0.087497946 
  113650       113589    264.59523   -1277.6807    1781.3345   0.65019004   0.43108762    1.2151011  -0.24732384   0.24898794   0.35703917  0.072384347 
  113700       113639    248.11874    -609.4555    1780.4929   0.65049738   0.47980726    1.2149998    -0.247519   0.23890155   0.40474091  0.083683791 
  113750       113689    261.52546    284.76683    1778.9803   0.65105047   0.43974646     1.214664  -0.21645593   0.21813612   0.36830181  0.069764461 
  113800       113739    267.50906    3728.5532     1778.834   0.65110401   0.42312028    1.2157676  -0.22813549   0.22527236   0.36083896  0.065144453 
  113850       113789    243.89186    765.45497    1781.6403   0.65007846    0.4955839    1.2182519  -0.22869136   0.25470137    0.4020721  0.067501797 
  113900       113839    258.16776   -1231.3839    1786.7501   0.64821935   0.45456201    1.2195304  -0.22664489   0.25117327   0.35883595  0.071197681 
  113950       113889     265.3797   -418.14094     1792.076   0.64629289   0.43271739    1.2190552   -0.2290049   0.21429099   0.38150523  0.065926059 
  114000       113939    264.39614    -1206.418     1796.233   0.64479718   0.43592903    1.2193525  -0.23186868   0.24101268   0.33982801  0.086957017 
  114050       113989    262.10362    1856.1849    1799.4951    0.6436283   0.44774148    1.2243721  -0.23021986   0.26272102   0.34024081  0.074999513 
  114100       114039    262.19191   -766.52421    1802.5433   0.64253987   0.44989202    1.2267843  -0.23886178   0.24620024   0.37243097  0.070122594 
  114150       114089    250.37247    -3691.943    1802.7907   0.64245169   0.48266998    1.2245404  -0.23442202   0.24992162   0.39148321  0.075687177 
  114200       114139    267.00681    213.82048    1800.4667   0.64328098   0.43445204    1.2256111  -0.23486083   0.24960079   0.34348037  0.076231708 
  114250       114189    261.70206   -3155.1949     1796.797   0.64459478   0.45373141    1.2291722  -0.24116761   0.27831263   0.33711417   0.07947222 
  114300       114239    262.84775    1222.6631    1790.7312   0.64677824   0.45127688    1.2301124  -0.24024439   0.29237848   0.33188807  0.067254725 
  114350       114289    260.50037   -2743.2311    1783.1594   0.64952464   0.45268205    1.2245621  -0.24627855   0.28095716   0.36677367  0.051229773 
  114400       114339      273.498   -646.21956    1775.0411   0.65249529   0.40733976    1.2177327  -0.23324124   0.20365308   0.35903637   0.07789155 
  114450       114389    271.09021    5266.7878    1768.2009   0.65501943   0.41446722    1.2177257  -0.22314866   0.20655512   0.35338917  0.077671594 
  114500       114439    285.85418   -2992.1589    1764.2158   0.65649902   0.37207745    1.2190826   -0.2658703   0.18947144   0.36004967  0.088426642 
  114550       114489    273.65759     4157.536    1759.5858    0.6582265   0.40992846    1.2207943  -0.24196828    0.2093284   0.36442905  0.078139285 
  114600       114539    276.01732   -2693.6678    1755.7612   0.65966029   0.40300295    1.2208608  -0.25134716    0.2179642   0.36689028  0.069495641 
  114650       114589    267.37179    -2411.072    1751.3393   0.66132585   0.42489997    1.2171405  -0.27436058   0.22105688   0.40156805   0.07663562 
  114700       114639    263.13022    5331.0302    1742.1866   0.66480017   0.43434505    1.2140175  -0.23890182   0.27534895   0.33583845  0.062059473 
  114750       114689    244.75101   -4420.2469    1736.3819   0.66702261   0.49051319    1.2157269  -0.25768899   0.28303779   0.37872399    0.0864404 
  114800       114739    259.09539    4481.8571    1730.6463   0.66923322   0.45111846    1.2188355  -0.24043755   0.28672412   0.33952506  0.065306824 
  114850       114789    237.18285   -2283.0783    1726.8455   0.67070619   0.51443632     1.217225  -0.26136714   0.28088645   0.41359213  0.081324888 
  114900       114839    264.50406    1741.3738    1721.8476   0.67265301   0.42829773     1.212041  -0.26658123   0.24338931   0.37965481  0.071834836 
  114950       114889    264.09405    -1082.649    1715.3335   0.67520744   0.42504521    1.2075736   -0.2684135   0.22686446   0.37790753  0.088686718 
  115000       114939     253.8686    2221.6972     1709.247   0.67761182    0.4532434    1.2054731  -0.25663563   0.22203309   0.40534957  0.082496378 
  115050       114989    243.82129    183.65031    1704.2259   0.67960823    0.4852482    1.2077071  -0.25338793   0.25179523   0.39595306  0.090887848 
  115100       115039    264.04737    4632.3197    1703.2407   0.68000134   0.42818274    1.2105728  -0.24648492    0.2597157   0.34249507  0.072456894 
  115150       115089    262.24545   -7570.2075    1706.5118   0.67869788   0.43660472    1.2136556  -0.25175656   0.25465655   0.36817357  0.065531154 
  115200       115139     254.0845    7594.1292    1710.8276   0.67698577   0.45968281    1.2125522  -0.23976489   0.25271774   0.37415297   0.07257698 
  115250       115189    242.51595   -6471.4914    1718.4674    0.6739761   0.49615522    1.2147463  -0.22671308   0.27984612   0.36009156  0.082930622 
  115300       115239    241.81737    6176.1076    1727.8393   0.67032043       0.5031    1.2196211  -0.23653236   0.27569007   0.38356316  0.080379134 
  115350       115289    276.33992   -4482.7816    1737.0891   0.66675104   0.40155649    1.2203702  -0.24534493   0.23633046   0.35459472  0.055976241 
  115400       115339    264.59823    2782.9866    1746.3407   0.66321881   0.43429168     1.218314  -0.24065424   0.25717888   0.34999871  0.067768326 
  115450       115389    261.85185    2792.9985    1755.4528   0.65977621    0.4427433    1.2186279  -0.25693857   0.21767722   0.42103146  0.060973175 
  115500       115439     270.5729    105.13308    1762.5604   0.65711562   0.41501199    1.2167377   -0.2699635   0.25329047   0.36495169  0.066733323 
  115550       115489     246.9019    1755.5965    1764.0754   0.65655128   0.48459214     1.216179  -0.23774131   0.24497004   0.39955686  0.077806555 
  115600       115539    267.59948    1446.9997    1763.4707   0.65677642   0.42289779     1.215813   -0.2601725    0.2581543   0.34730103  0.077614955 
  115650       115589    240.53106    -2525.293    1761.0617   0.65767485   0.50465777    1.2173674  -0.25222745   0.27952916   0.40136682  0.075989245 
  115700       115639    261.62627     1753.995    1758.4083   0.65866725   0.44368825    1.2189045   -0.2451993   0.24839424   0.37270781  0.067785501 
  115750       115689    265.04628    -2760.806    1756.9375   0.65921867   0.43596913    1.2213191   -0.2533818   0.25197685   0.36227635  0.075097737 
  115800       115739    256.64716    1385.5825    1753.2462   0.66060658   0.45977088    1.2202336  -0.25143493   0.24912887   0.37715431  0.084922619 
  115850       115789    258.65125   -1938.1708    1746.2905   0.66323785    0.4522512    1.2186522  -0.24584691   0.25649412   0.36526909  0.076334896 
  115900       115839    243.38749    2639.8605    1738.7557   0.66611195   0.49519476    1.2163682  -0.25126152   0.29211889    0.3744992  0.079838192 
  115950       115889    271.78712   -5297.9832    1731.3526   0.66896018   0.40736778    1.2126913  -0.26207708   0.26772901   0.32965917  0.072056684 
  116000       115939    249.97761    7246.8166    1725.4949   0.67123116   0.47075831    1.2114587  -0.24068279   0.25648039    0.3837825  0.071178203 
  116050       115989    267.02418   -1560.9467    1722.4819   0.67240531   0.41958901    1.2107996  -0.26528798   0.24211864   0.36877078  0.073987569 
  116100       116039    244.43995     1913.792    1719.0843   0.67373424   0.48519461    1.2094866  -0.23825812   0.25951898   0.39543744  0.068496322 
  116150       116089    260.33251    375.42119    1719.3528   0.67362902   0.43657625     1.207959  -0.25429978   0.24040471   0.37749415  0.072977186 
  116200       116139    262.27895    2229.4482    1722.3769   0.67244628   0.43491358    1.2120637  -0.24409472   0.24196679   0.37801241    0.0590291 
  116250       116189    239.20082   -827.63418    1727.1573   0.67058512   0.50510779    1.2138759  -0.24423065   0.27145846   0.39888996  0.078990021 
  116300       116239    264.18932    1386.9895    1731.2807   0.66898798   0.43383217    1.2166429  -0.25318896   0.24458593   0.37736228  0.065072917 
  116350       116289    247.28914    1429.7933    1732.5927   0.66848139   0.48494824    1.2176826  -0.21160197   0.25182886   0.38266904  0.062052314 
  116400       116339    246.60355    3211.2156    1736.6329   0.66692619   0.48748628    1.2181891  -0.22810818   0.25227852   0.38547439  0.077841548 
  116450       116389    257.30353    2152.1107    1740.1699   0.66557062   0.45525866    1.2176663  -0.24243747   0.24858185   0.38979515  0.059319129 
  116500       116439    268.93379    212.61996    1743.8353   0.66417166   0.42095726    1.2178261  -0.26906697   0.27218955   0.36407903  0.053755652 
  116550       116489    259.75972   -2280.5438    1745.8945   0.66338828   0.44592907    1.2156145  -0.26231137   0.27193527   0.36587602  0.070429146 
  116600       116539    250.03195    -996.0429    1744.4874   0.66392338   0.46935388    1.2102153  -0.24280438   0.26410185   0.37786245  0.070193957 
  116650       116589    265.34213    4091.9413    1744.0047   0.66410715    0.4210321    1.2072586  -0.24884502   0.24761008   0.35646937  0.065797677 
  116700       116639    257.28711   -58.465459    1742.4017   0.66471812   0.44666508     1.209024  -0.24658924    0.2823948   0.34549702   0.06536249 
  116750       116689    260.36361    3101.2631    1742.3898   0.66472265    0.4396044    1.2110792  -0.23842904   0.25874631   0.35361262  0.065674514 
  116800       116739    241.44399   -2302.8236    1746.0526   0.66332824   0.49727354    1.2126883  -0.22736459   0.26229818   0.39530408  0.067035864 
  116850       116789    254.58142    7348.7006    1751.6322    0.6612153   0.45917789    1.2135197  -0.23041101   0.27533268    0.3677882  0.046468021 
  116900       116839    248.26593   -3536.2774     1761.749   0.65741827   0.47818528    1.2138139  -0.24351626   0.28424514   0.36464182  0.072814582 
  116950       116889    253.08529   -376.56955    1770.0094   0.65435018   0.46596735    1.2158761  -0.25814982   0.27722428    0.3759769  0.070915985 
  117000       116939    264.56362    3552.4215     1773.991   0.65288155   0.43170941    1.2156292  -0.22482889   0.26155371   0.32658918  0.068395408 
  117050       116989    252.49418   -9180.3304    1777.3808   0.65163637   0.46992268    1.2180799  -0.26268741   0.30254163   0.36091594  0.069152518 
  117100       117039    261.13183    6465.5608    1774.3275    0.6527577   0.44346473    1.2172159  -0.21376309   0.23829947   0.35654524  0.062383112 
  117150       117089    273.48056    1035.6357    1774.0292   0.65286747   0.40660758    1.2169488  -0.24431252   0.24078943   0.33669254  0.073438131 
  117200       117139    260.91393   -1727.2859    1772.3769   0.65347611   0.44889208    1.2219976    -0.240299   0.31117826   0.32597681  0.052036018 
  117250       117189    245.46655    2449.7781     1769.907   0.65438804   0.49431064    1.2216445  -0.24981408   0.29159876   0.35482932  0.097696637 
  117300       117239    244.46785    1326.1484    1765.3293   0.65608495   0.49815918    1.2225338  -0.26051108   0.28250401    0.3904435  0.085722745 
  117350       117289    252.73199    -2292.998    1758.7071   0.65855535    0.4729209    1.2217827  -0.24678403   0.25192612   0.40034365  0.067435149 
  117400       117339    249.13651    5401.4211    1753.8589    0.6603758   0.48755797    1.2257662  -0.22276503   0.25839124   0.37937396  0.072557792 
  117450       117389    233.35161   -7566.0724    1754.7826   0.66002817   0.53977973    1.2312162  -0.24106482   0.29121993   0.41281985  0.076804768 
  117500       117439    253.13589     7159.394      1757.05   0.65917644   0.48301037     1.233069   -0.2296234   0.27228281   0.37883398  0.061516982 
  117550       117489    246.24602   -5231.4321     1762.318     0.657206   0.50397761    1.2336211  -0.25135127   0.28957326   0.38304875  0.082706865 
  117600       117539    260.57858    4909.6902    1766.6819   0.65558264   0.46037943    1.2324913  -0.24119612   0.28385008   0.35073098  0.066994489 
  117650       117589    258.18212   -1762.0604     1769.699   0.65446494   0.46592904      1.23094  -0.23344073   0.25232362   0.36711918  0.079926971 
  117700       117639    267.71341    689.53008    1773.3146   0.65313057   0.43857693    1.2318297  -0.24288082   0.25897514   0.34646383  0.076018783 
  117750       117689    275.21441   -206.92862    1775.8943   0.65218183   0.41593979    1.2314186  -0.25550575   0.25726159   0.33064395  0.083540006 
  117800       117739    267.45108    2958.5423    1774.2175   0.65279818   0.43664522    1.2291207  -0.25306464   0.26408902   0.36657322  0.059047609 
  117850       117789    262.60968    1668.8899    1771.6016    0.6537621   0.44977344    1.2279035  -0.21065042   0.25149084   0.33000544  0.078927576 
  117900       117839    265.74193   -2698.5682    1772.1379   0.65356426   0.44464426    1.2320554  -0.23872548   0.28429541   0.34010957  0.058964757 
  117950       117889    265.34136    2279.4222    1774.3666   0.65274334   0.44731715    1.2335414  -0.22678349   0.24343661   0.35645424  0.074209798 
  118000       117939    272.51464   -3012.4333    1779.1622   0.65098391   0.42784261    1.2353218  -0.24953494   0.28319169   0.32811798  0.066067873 
  118050       117989     236.8691    198.42158    1781.1213   0.65026788   0.53584776    1.2377068   -0.2279836   0.30763884   0.39838253  0.057809991 
  118100       118039    257.35076    2115.4082      1783.55   0.64938241   0.47402687    1.2365744  -0.23216514   0.28133228   0.36396785  0.060891882 
  118150       118089    264.87187    975.01862    1787.0766    0.6481009   0.45147538    1.2363085  -0.23096988   0.26582348   0.36786843  0.048753356 
  118200       118139    248.71852    435.80436    1789.6624   0.64716451   0.49594014    1.2329098  -0.23610377   0.26303242   0.40911126  0.059900239 
  118250       118189    271.36875   -43.209124    1789.8059    0.6471126   0.42733897    1.2314228  -0.24532576   0.25819577   0.35032471  0.064144247 
  118300       118239    269.80434   -266.57131    1788.0629   0.64774343   0.43024354    1.2296919  -0.23007988   0.24767618   0.34078965  0.071857588 
  118350       118289     256.8798    1339.7864    1784.3961   0.64907449   0.46972583    1.2308779  -0.24229818   0.31658403   0.32727832   0.06816167 
  118400       118339    275.81202    526.34327    1780.9857   0.65031738   0.41333713    1.2305867  -0.22376197   0.23774369   0.32363815  0.075717261 
  118450       118389    260.15474   -4384.1826    1777.8291   0.65147205   0.46152026    1.2323762  -0.23230754   0.27750331   0.33344744  0.082877047 
  118500       118439    260.37577    5089.5451    1774.0308   0.65286688   0.46233789    1.2338488  -0.24126576   0.28861491   0.33823249  0.076756245 
  118550       118489    253.38706   -5980.4777    1770.0997   0.65431679   0.48557941    1.2363823  -0.23542248   0.29576407   0.33791916  0.087318665 
  118600       118539    266.97682    11313.732    1767.5832   0.65524835   0.44631062    1.2373809   -0.2464247   0.29894712   0.33109098  0.062697217 
  118650       118589    263.52356   -7126.5246    1766.2207   0.65575382   0.45350665    1.2343447  -0.26667164   0.29858762   0.33197462  0.089616053 
  118700       118639    253.74452    5599.2473    1761.3834   0.65755473   0.47787084    1.2297329  -0.22542539   0.26466251   0.36818178  0.070451943 
  118750       118689    260.70225   -2575.3106    1757.8444   0.65887856   0.45642272     1.228901  -0.26532848   0.29069431   0.35073832  0.080318556 
  118800       118739    271.03922    1359.8654    1753.1688   0.66063573   0.42236056     1.225468  -0.22838141   0.27346665   0.31616593  0.061109382 
  118850       118789    257.77127    4658.8005     1750.006    0.6618297   0.46121105    1.2250046  -0.23646473   0.26998654    0.3597702  0.067919048 
  118900       118839    265.83984   -5987.9659    1750.0039    0.6618305   0.43740245    1.2251038  -0.24688857   0.26076563    0.3581397  0.065385691 
  118950       118889     258.8315    3169.6568    1751.8571    0.6611304   0.46031029    1.2272454  -0.23095215   0.27279658   0.35269732  0.065768541 
  119000       118939    276.02286   -618.67221    1757.4168   0.65903885   0.40700941    1.2248837  -0.24710419   0.25939887   0.33581843    0.0588963 
  119050       118989    266.37684    256.07054    1762.9303   0.65697776   0.43320593    1.2224984   -0.2453418   0.25581029   0.36016163  0.062575803 
  119100       119039    256.29698    4858.9608    1768.0599   0.65507167   0.45812169    1.2175468  -0.25423367   0.26813673   0.38302044  0.061198188 
  119150       119089    248.72261   -4042.0709    1773.2221   0.65316464    0.4786107    1.2155925  -0.25753567    0.2789297    0.3834638  0.073752864 
  119200       119139    255.87011    3803.7606    1777.0055   0.65177399    0.4561112    1.2142715  -0.25071699   0.29310696   0.34741918  0.066302043 
  119250       119189     244.7672   -7.2888227    1784.4402   0.64905844   0.48760159    1.2128632  -0.25383598   0.31466973   0.35974001  0.067027837 
  119300       119239    273.59876    2542.4018     1791.932   0.64634483   0.39686788    1.2075594  -0.24777343   0.24204394   0.32948773  0.073109636 
  119350       119289     262.6741   -1333.0043    1799.4719    0.6436366   0.42762286    1.2059438  -0.25031778   0.26156828   0.34913968  0.067232674 
  119400       119339    264.91004   -2917.4217    1805.9111   0.64134163   0.42037668    1.2053229  -0.24105876   0.25829308   0.33192852  0.071213842 
  119450       119389    268.99302   -920.32868    1810.1674   0.63983364   0.40845714    1.2055015  -0.24721951   0.25942358   0.33508947  0.061163603 
  119500       119439    260.32425   -224.28129    1811.2546   0.63944957   0.43427886    1.2056371  -0.23751627   0.24129644   0.34910763  0.081391057 
  119550       119489    260.80486     3936.012    1808.9767   0.64025478   0.43531822    1.2081005  -0.23240334   0.24679223   0.35008579  0.070843536 
  119600       119539    263.73256   -7199.7805    1805.0771   0.64163794   0.43128671     1.212744  -0.26039923   0.27723051   0.35312105  0.061334381 
  119650       119589    251.30854    2069.2793    1799.2578   0.64371317   0.46990159    1.2145457  -0.24510171   0.28052853   0.36949768  0.064977096 
  119700       119639    252.08551    2318.1668    1792.4808   0.64614694   0.46852643    1.2154727  -0.23976231   0.25305199   0.37863718  0.076599573 
  119750       119689    267.39617   -1241.2979    1786.0292   0.64848098    0.4238908    1.2162036  -0.24646837   0.26161703   0.35429525  0.054446885 
  119800       119739    266.19926    2565.6519    1779.4919    0.6508633   0.42447678    1.2132431  -0.24987543   0.27923538   0.32545012  0.069666721 
  119850       119789    247.25408   -3393.3204    1772.1495   0.65355996   0.48113202    1.2137625  -0.22839358   0.26989943   0.37195683   0.06766934 
  119900       119839    246.02463    5274.2171    1769.3894   0.65457945   0.48807284    1.2170604  -0.21569997   0.28661817   0.35498403  0.062170612 
  119950       119889    260.12309    1297.4536    1773.6087   0.65302226   0.44714235    1.2179045  -0.24252677   0.27521221   0.34193472  0.072522193 
  120000       119939    258.69593    616.57865    1781.5859    0.6500983   0.45158951    1.2181229  -0.22627632   0.26487486   0.35393104  0.059059926 
  120050       119989    250.80975    2734.1919    1793.0111   0.64595584   0.47518588     1.218352  -0.24335464   0.31938458   0.34556807  0.053587866 
  120100       120039    250.13215   -3728.0998    1802.6467   0.64250302   0.47616271    1.2173211  -0.22660941   0.25618952   0.36253893   0.08404367 
  120150       120089    276.06448   -513.73139     1811.285   0.63943885   0.40004316    1.2180408  -0.24101314   0.25271246   0.31338398  0.074959866 
  120200       120139    278.71185   -50.084701    1816.1014   0.63774302   0.39197142    1.2178133  -0.23519361   0.21841619   0.32715666  0.081592179 
  120250       120189    268.36484   -1412.8839    1817.0975   0.63739341   0.42739794     1.222581  -0.22688465   0.22881018   0.35962132   0.06585109 
  120300       120239     256.5364    3881.4365    1817.6838   0.63718781   0.46616229    1.2262969  -0.22399105   0.26920851    0.3477922  0.073152637 
  120350       120289    267.42013   -4281.1301    1815.9775   0.63778654   0.43742192    1.2298057  -0.23851418   0.26087865   0.34025056  0.074806896 
  120400       120339    272.49426   -1874.8729    1811.7257   0.63928328   0.42284591    1.2302647  -0.23432347   0.26701723    0.3316474  0.058504762 
  120450       120389    263.53908    4643.4249    1805.4782   0.64149542   0.44991215    1.2307961  -0.22324327   0.25544628   0.35426256  0.063446573 
  120500       120439    242.61627    16.740204     1800.059   0.64342668    0.5123021    1.2311904  -0.24430248   0.30042616   0.40293722  0.053241195 
  120550       120489     246.3891    669.55585    1794.2489   0.64551019   0.49534682    1.2254143  -0.25794788   0.32973898   0.36904157   0.05451415 
  120600       120539    275.84685    -3161.961     1785.833   0.64855224   0.39958259    1.2169353  -0.26684279    0.2486357   0.35057541  0.067214262 
  120650       120589    275.81992   -2435.7062    1775.1818   0.65244359   0.39184342    1.2091163  -0.24584152   0.26511272   0.31081846  0.061753767 
  120700       120639    248.52528    7245.5913    1766.8696   0.65551298   0.47321818    1.2096153  -0.24366474   0.24458885   0.40403629  0.068257778 
  120750       120689    255.28389   -4559.8198     1763.079   0.65692234   0.45438126    1.2108046  -0.22136132   0.24795895   0.37531343  0.052470204 
  120800       120739    269.68046    3519.4252    1765.4371    0.6560449   0.41112879    1.2102101  -0.25038197   0.24608697   0.34070618  0.074717612 
  120850       120789    266.87944    2.3075256    1767.9425   0.65511517   0.42015258    1.2109343  -0.21329383   0.22909709   0.33439833  0.069950999 
  120900       120839    274.13545    913.09487    1773.5527   0.65304288   0.40550035    1.2177821  -0.24648989   0.26360781   0.31022753  0.078154902 
  120950       120889    263.25254    2319.3355    1778.5649   0.65120253   0.43856088    1.2185958  -0.26280712   0.27750359   0.35777104  0.066093364 
  121000       120939    268.08545   -871.18512    1778.6094   0.65118626   0.42177346    1.2161287  -0.24028524   0.26737353    0.3192248  0.075460387 
  121050       120989    255.01956    407.91653     1780.136   0.65062782   0.46148766    1.2171277  -0.25493058   0.27577101   0.36766135  0.072985887 
  121100       121039    275.59163    1438.1292    1781.0225   0.65030397   0.40295592    1.2195524  -0.23856999   0.26066516   0.31340966  0.067451095 
  121150       121089    268.75675    2023.8343    1783.2976   0.64947432   0.42501963    1.2213639  -0.26414306   0.29302752   0.33514055  0.060994616 
  121200       121139    252.20191   -2221.6922    1782.7411   0.64967705   0.47176553    1.2190567  -0.23819068   0.29840338   0.33230481  0.079248011 
  121250       121189    248.25017    194.93341    1781.3745   0.65017545   0.48616122    1.2217431  -0.22123702    0.2716969   0.36028981  0.075411533 
  121300       121239    251.58726   -349.91643    1782.9976   0.64958357   0.48316663    1.2286366  -0.24214522   0.28075977   0.38016996  0.064382117 
  121350       121289    255.12943   -3673.4883    1783.0909   0.64954958   0.47408375    1.2300494  -0.24718098   0.27847306   0.37376919   0.06902248 
  121400       121339    238.87687    6061.7406    1779.8211   0.65074293   0.51888485    1.2266931  -0.22953759   0.29298686   0.38168221  0.073753374 
  121450       121389    256.71222   -2036.5445    1777.2856   0.65167128   0.46301834    1.2236739  -0.25310446   0.26329128   0.39544138  0.057390141 
  121500       121439    252.05134    4272.8092    1773.4674   0.65307429   0.47725158    1.2240966   -0.2194948   0.24535658    0.3850748     0.066315 
  121550       121489    262.95972   -1208.3436    1774.8912   0.65255041   0.44730198    1.2264693  -0.24495035   0.24563492   0.38009569  0.066521718 
  121600       121539    272.67863   -451.65138    1776.1101   0.65210257   0.41839809    1.2263632  -0.25457961   0.23615377   0.36592064  0.070903293 
  121650       121589    264.04361    3606.8529    1776.2338   0.65205715   0.44430331    1.2266822  -0.22399042   0.24469767   0.35958377    0.0640123 
  121700       121639    262.27389    980.95541    1778.5438   0.65121026   0.45179468    1.2289298  -0.25777209   0.24094088   0.38007302  0.088552869 
  121750       121689    273.95024   -4509.5427    1776.8143   0.65184413   0.41618427    1.2279172  -0.23316021   0.25986453   0.31487306  0.074606902 
  121800       121739    259.53654    1359.6399    1774.8075   0.65258118   0.45853233    1.2275565  -0.23897477   0.24762484   0.36895734  0.080924925 
  121850       121789    271.08604   -923.98568    1772.1254   0.65356885   0.42419631    1.2274424  -0.25612986    0.2550561   0.36042763  0.064842444 
  121900       121839    258.23912     4302.628    1769.1377   0.65467258   0.46257435    1.2277542  -0.23344981   0.25340744   0.36688808   0.07572864 
  121950       121889    261.80812    3440.3774    1770.2918    0.6542458   0.45559146    1.2313465  -0.24542646   0.26862792   0.35170988   0.08068012 
  122000       121939    267.87528   -8489.0624    1772.2008   0.65354106   0.43863433    1.2323668  -0.24701228   0.26626771   0.34440511  0.074973784 
  122050       121989    283.35258    6765.0776    1771.8783   0.65365999   0.39367704    1.2332698  -0.26068277    0.2603676    0.3280492   0.06594301 
  122100       122039    257.44799   -5991.9784    1769.1035   0.65468525   0.46824267    1.2310783   -0.2400964   0.26544628   0.37154079  0.071351998 
  122150       122089    265.06751    6320.6289    1766.5897   0.65561683   0.44506473    1.2304776  -0.24769062    0.2668229   0.35116276  0.074769704 
  122200       122139    251.08157   -5537.3455    1763.6274   0.65671808   0.48605024    1.2300218  -0.23585572   0.27776033   0.36438323  0.079762396 
  122250       122189    267.73253     3209.138    1760.9104   0.65773134   0.43700124    1.2303107  -0.24934118   0.28395016   0.32908999  0.073302254 
  122300       122239    261.42033   -3560.0231    1758.1289   0.65877192   0.45519512    1.2298011  -0.25556245   0.26884683   0.34443803   0.09747271 
  122350       122289    247.32547     4878.335    1753.7249   0.66042627   0.49845315    1.2312951  -0.22731319   0.25954893   0.38414435  0.082073064 
  122400       122339    242.76481   -1237.3654    1752.0151   0.66107078   0.51349271    1.2328211  -0.24589842   0.27582103   0.40891145  0.074658637 
  122450       122389    252.54741    3059.7096    1751.1209   0.66140834   0.48386799    1.2321829  -0.22930268   0.21852953   0.41379948  0.080841654 
  122500       122439    265.65925   -1917.1251     1753.755   0.66041492   0.44436686     1.231533  -0.24392257    0.2201082   0.37712571   0.09105551 
  122550       122489    279.55225    480.29961    1756.1149   0.65952744   0.40445932    1.2327914   -0.2497465   0.22503583   0.36140065  0.067769335 
  122600       122539     258.4876    126.93536    1755.5144   0.65975306   0.46531452    1.2312306  -0.25803929   0.24412712   0.39840314  0.080823559 
  122650       122589    260.87832    3730.4295    1752.9406   0.66072176    0.4568715    1.2298715  -0.25207315   0.24690439   0.39157067  0.070469594 
  122700       122639    256.79729    497.28665    1750.4504   0.66166168   0.46692121    1.2278288  -0.24815135   0.24714546   0.39429003   0.07363707 
  122750       122689     250.7229   -140.29636    1747.5948   0.66274284   0.48627711    1.2291859  -0.24609576   0.29236443   0.36942482  0.070583619 
  122800       122739    237.29171    692.03888    1746.6603   0.66309743   0.52860268    1.2317139   -0.2535994   0.32530574   0.37965324  0.077243096 
  122850       122789    240.09376    5450.6709    1746.7227   0.66307377   0.51993817    1.2313521  -0.23524477   0.31439751    0.3711838  0.069601627 
  122900       122839    249.11066    3310.6679     1751.337   0.66132674   0.48766512    1.2257967  -0.24507394   0.29318034   0.38160744  0.057951277 
  122950       122889    271.75881   -228.94793    1759.3491   0.65831504   0.41539806    1.2206376  -0.23879607   0.21653234   0.37083642  0.066825373 
  123000       122939    263.18019   -2313.7159    1768.3565   0.65496179   0.44316129    1.2229819   -0.2291172   0.27916037   0.33393249  0.059185638 
  123050       122989    261.59104   -2672.8295    1777.9287   0.65143555    0.4464394    1.2215512   -0.2281329   0.26333244   0.33218511  0.079054738 
  123100       123039    259.11984    3845.1888     1786.742   0.64822226   0.45591374    1.2237032  -0.23239879   0.27632516   0.33833998  0.073647387 
  123150       123089    264.41561    -1079.995    1794.0328   0.64558795    0.4430132    1.2264944  -0.22993893    0.2378014   0.37082967  0.064321063 
  123200       123139    269.38145   -2785.1259    1800.4715   0.64327925   0.42871992    1.2269152  -0.26429003   0.25644324   0.36806548   0.06850123 
  123250       123189    252.27796   -1487.8986    1800.1438   0.64339637   0.48168119    1.2291977  -0.24061831      0.28871   0.36345925  0.070130256 
  123300       123239    252.34622    1838.4864    1798.5505   0.64396633    0.4810617    1.2287805  -0.24068045   0.29310238   0.36441711  0.064222654 
  123350       123289    240.17893    7217.0831    1796.4792   0.64470882   0.51861298    1.2302793   -0.2248093   0.29328382   0.37572448  0.074413982 
  123400       123339    249.73786   -3807.6667    1796.7833   0.64459971   0.49609808    1.2360881  -0.23576198   0.29348969   0.37660042  0.061769955 
  123450       123389    257.48368    2178.5901    1796.8608   0.64457191   0.47251234    1.2354538  -0.24001836   0.26175236   0.37567078  0.075107559 
  123500       123439    273.97853     420.3113    1795.0955   0.64520578   0.42428755    1.2361043  -0.23671737   0.24917475    0.3447891  0.067041072 
  123550       123489    267.57311   -2008.3691    1793.8123   0.64566731   0.44196945    1.2348065  -0.23942185   0.27686837   0.33755582  0.066967108 
  123600       123539    248.51395    1325.5205    1790.1335   0.64699419   0.49718172    1.2335452  -0.23195346   0.26410131    0.3823238  0.082710075 
  123650       123589    271.60657    913.10031    1785.6009   0.64863652   0.42884534    1.2336338  -0.23194472   0.23060473   0.37441134  0.055773992 
  123700       123639    263.88791   -2590.1249    1781.2124   0.65023463   0.44888755    1.2308051  -0.25469539   0.25903003   0.37619622  0.068356692 
  123750       123689     269.0082    833.84407     1773.853   0.65293234   0.43435466     1.231444  -0.24367176   0.26562827     0.341113  0.071285147 
  123800       123739    244.46046    2384.9129    1768.2031   0.65501861   0.50530098    1.2296537  -0.23999218   0.28680799   0.38397916  0.074506009 
  123850       123789    264.46918   -4106.7683    1761.3766   0.65755728   0.44353384    1.2271738  -0.26804085   0.28771885   0.35044521  0.073410625 
  123900       123839    267.50883    1800.8273    1751.9664   0.66108916   0.42918371    1.2218303  -0.24742674   0.24723152   0.36616085  0.063218074 
  123950       123889    263.64209   -3799.0925    1743.2926   0.66437841   0.43809669    1.2192859  -0.28711801   0.28851196   0.37475214  0.061950596 
  124000       123939    249.80355    2008.1511    1729.8972     0.669523   0.47386017    1.2140449  -0.24262829   0.28007319   0.36347012   0.07294516 
  124050       123989    245.53094     2289.409    1718.9197   0.67379878   0.48599207    1.2135167  -0.23988984   0.25982505   0.41125039  0.054806472 
  124100       124039    265.33654   -196.02033    1711.8795   0.67656979   0.42565785    1.2118678   -0.2668508   0.22436663   0.40672876  0.061413264 
  124150       124089    264.20393    2740.4554    1704.3145   0.67957291   0.42537613    1.2082301  -0.25647412   0.23792339   0.38784462  0.056082226 
  124200       124139    252.39608   -3381.5031    1698.4619   0.68191461   0.45875079    1.2066173  -0.25796051   0.26709467   0.38234322  0.067273404 
  124250       124189    264.65753    7888.2887    1693.1115    0.6840695   0.42002455    1.2042226  -0.26330833   0.24880232   0.38166823  0.052862333 
  124300       124239    275.22824   -4405.0407    1688.6717   0.68586804   0.38302158    1.1985413  -0.28127465   0.24311196   0.35610758  0.065076686 
  124350       124289    267.87503    4441.7997    1684.4282   0.68759593   0.40046389    1.1941956  -0.26599193   0.27194458   0.34391038  0.050600865 
  124400       124339    242.19156   -4601.6808    1683.1651   0.68811192   0.47544824    1.1930781  -0.24011946   0.25259013   0.40320402  0.059773544 
  124450       124389    251.40829    4290.1191    1686.0388   0.68693912   0.44883288    1.1937725  -0.27442013   0.25826663   0.38353223   0.08145415 
  124500       124439    251.44822   -603.95928    1687.3336   0.68641197    0.4489461    1.1940041  -0.27720224   0.24123757   0.38713044   0.09778033 
  124550       124489    259.77869   -377.36874    1686.8221   0.68662012   0.42702862    1.1967703  -0.25893804   0.22740085   0.38293683  0.075628971 
  124600       124539    254.90055    -1971.715    1686.5191   0.68674347    0.4445109    1.1997984  -0.24653396   0.26316727   0.35503355  0.072844042 
  124650       124589    255.31081    44.013062    1687.7432   0.68624537   0.44550403    1.2020071  -0.25541595   0.26271353   0.36852634  0.069680107 
  124700       124639    263.41952     2181.056    1690.6678   0.68505829   0.42165635    1.2021861  -0.27264416   0.25026006   0.37177912  0.072261329 
  124750       124689     265.1366    4922.3906    1692.5448   0.68429857   0.41872912    1.2043467  -0.26595418   0.24921188   0.35077033  0.084701094 
  124800       124739    269.77353   -6686.2534     1694.387   0.68355457   0.40908891     1.208446  -0.28862216   0.26885149   0.34958271  0.079276871 
  124850       124789    270.25973     2313.089    1691.9941   0.68452129   0.40502906    1.2058268  -0.27318264   0.25094265   0.35646374   0.07080531 
  124900       124839    248.53838   -593.60041    1687.2367    0.6864514   0.46770902    1.2041449  -0.24480847   0.25016266   0.38413653  0.078218304 
  124950       124889    253.44473     8593.203    1685.8124   0.68703136   0.45446796    1.2054417  -0.25984074   0.24402567   0.37167554  0.098607484 
  125000       124939     264.7145   -4530.9553    1685.3374   0.68722498   0.42589226    1.2102591    -0.268859   0.30619132   0.31401143  0.074548512 
  125050       124989     255.4013   -2053.8734    1685.1693   0.68729354   0.45210138    1.2088726   -0.2676657   0.26981843   0.37085278  0.079095863 
  125100       125039     252.9294   -1547.4129    1685.0659    0.6873357   0.46174945    1.2111962   -0.2585486    0.3102536   0.34573298  0.064311462 
  125150       125089    248.27911    2621.2691    1686.4838   0.68675784    0.4706762    1.2063439  -0.26584143   0.27633629   0.37833046  0.081850876 
  125200       125139    257.18172    6361.7403    1689.5846   0.68549746    0.4425634    1.2046101  -0.26426211   0.24435115   0.39764271  0.064831657 
  125250       125189    263.53229   -2530.7846    1692.8035   0.68419399   0.42103613       1.2019   -0.2616045   0.24504161   0.38154146  0.056057562 
  125300       125239    246.86531    1571.0718     1697.223   0.68241238   0.46979219    1.2012707  -0.24219627   0.22483034   0.39773727  0.089420847 
  125350       125289    254.25403    72.616888    1703.6128   0.67985283   0.45148482    1.2048566  -0.26831154   0.26112607   0.39463125  0.064039045 
  125400       125339    236.45376    5652.0538    1708.7014    0.6778282   0.50651701    1.2071454   -0.2479316   0.24654523   0.41978829  0.088115092 
  125450       125389    251.39682    1290.3716    1714.3237   0.67560517   0.46422872    1.2091344  -0.26467334   0.26794597   0.39259541  0.068360676 
  125500       125439    252.01186   -3397.7902    1719.6158     0.673526   0.46315357    1.2098816   -0.2518995   0.26579602    0.3729645  0.076292543 
  125550       125489    259.50486    94.226804    1723.3657   0.67206049   0.44305627    1.2119866  -0.23728498   0.26871468   0.33733682  0.074289751 
  125600       125539    245.60105    2383.0539    1727.6059   0.67041098   0.48463878    1.2123712   -0.2398066   0.28965382   0.35548206  0.079309488 
  125650       125589    270.24067   -1932.6712    1732.4195   0.66854823      0.41326    1.2140012   -0.2559797    0.2657078   0.33174688  0.071785017 
  125700       125639    252.00042    1600.3018    1734.7067   0.66766675   0.46846853    1.2151627  -0.25434687   0.24052367   0.39621394  0.086077793 
  125750       125689    258.53564   -5685.6543    1734.2666   0.66783616   0.44976257     1.215821  -0.24784375   0.26067444   0.36787799  0.069053899 
  125800       125739    270.27181    1748.2543    1730.2461   0.66938801   0.41241262    1.2132461  -0.25851783   0.26254733   0.32858287  0.079800251 
  125850       125789    270.20465    1650.7756    1724.9281   0.67145173   0.41235203    1.2129865  -0.23835784   0.23087044   0.34140306  0.078436379 
  125900       125839    275.49591   -1352.0025    1721.4309   0.67281583   0.39914522    1.2154581  -0.26492584   0.25489767     0.333849   0.07532439 
  125950       125889    275.38532    2484.8936     1717.228   0.67446255   0.39799502    1.2139802  -0.24247279   0.22894856   0.32473266  0.086786589 
  126000       125939    256.92199   -2997.3361    1714.7699   0.67542937   0.45608117    1.2173583  -0.26492372   0.27622211   0.37274335  0.072039425 
  126050       125989    265.98838     3240.473    1712.5037   0.67632321   0.42691019    1.2150516  -0.24284417   0.24752472   0.34550335  0.076726297 
  126100       126039    276.82812   -2626.7717    1712.4759   0.67633417   0.39411986    1.2143802  -0.26393899   0.23050402   0.35770415  0.069850688 
  126150       126089    270.03294    1577.3369    1713.6293   0.67587897   0.41096807    1.2110938  -0.23738016   0.22679379    0.3478523  0.073702148 
  126200       126139    261.96782   -1616.1605    1717.4321   0.67438239   0.43573495    1.2119632  -0.24755812   0.25285355   0.35980895  0.070630565 
  126250       126189    259.64985    -2192.973    1721.2676   0.67287966    0.4408002    1.2101602  -0.25778631   0.26295769   0.36300473  0.072624098 
  126300       126239    237.99006    4077.5571    1724.2932   0.67169898   0.50317937    1.2083599    -0.246413   0.26846096   0.40000135  0.081130058 
  126350       126289    260.74606    252.64002    1727.9283    0.6702859   0.43483965    1.2074477  -0.25220313   0.23876797   0.37282672  0.075448084 
  126400       126339    275.04331   -1936.5856    1729.6661   0.66961246   0.39209772    1.2070695   -0.2866101   0.23736012   0.35892637   0.08242133 
  126450       126389    268.29097    146.77955    1725.7903    0.6711163   0.41074605    1.2057102   -0.2673569   0.24097021    0.3726722   0.06446054 
  126500       126439    257.70753    3138.9338    1720.7603   0.67307804   0.44182665    1.2054314  -0.24395361   0.25621079   0.35672508  0.072844383 
  126550       126489    251.80607    3314.5694    1718.3265   0.67403136   0.46112711    1.2072454  -0.25562723   0.23383955   0.40226346  0.080651331 
  126600       126539    268.80591    -4663.536    1716.5518   0.67472823   0.41187978    1.2083697  -0.26991503   0.26024999   0.35130896  0.070235865 
  126650       126589    269.05522   -3051.2371    1711.6482   0.67666122   0.40764467    1.2048733  -0.27374455   0.24382663   0.35166321   0.08589939 
  126700       126639    276.92032   -5212.2031    1704.0997   0.67965857   0.38404838    1.2045819  -0.26033403   0.24208158   0.34448296  0.057817875 
  126750       126689    256.21608    435.85393    1696.4196   0.68273556   0.44530812    1.2044936  -0.27307851   0.27620181   0.36986619  0.072318631 
  126800       126739    241.02662    -3450.931    1689.4879   0.68553671   0.49097341    1.2051515  -0.25537516    0.2496539   0.42734337  0.069351297 
  126850       126789      272.034    6986.1566    1684.0063   0.68776819     0.397037     1.203092  -0.27058179   0.26151606   0.34745799  0.058644738 
  126900       126839    266.51373   -6404.4987    1678.6713   0.68995398   0.40898933    1.1986874  -0.26005334   0.25706679    0.3489834  0.062992492 
  126950       126889    269.48635    6161.4083    1672.9813   0.69230062   0.39964309    1.1981492  -0.27453803   0.26427383   0.33919478   0.07071251 
  127000       126939    242.03252   -1566.3243    1667.7262   0.69448208   0.48015883    1.1973174   -0.2700737   0.29782395   0.38783779   0.06457079 
  127050       126989    259.30209    6157.3655    1663.9534   0.69605672   0.42708893    1.1954184  -0.27150875   0.28930221   0.33144846  0.077847017 
  127100       127039    258.90493   -9305.8578    1661.7895    0.6969631   0.42990631     1.197059  -0.29474861   0.30452492   0.34420422  0.075925771 
  127150       127089    245.25336       4033.5     1658.529   0.69833328   0.46948326    1.1961854  -0.26171852   0.27160816    0.3765204  0.083073217 
  127200       127139    254.24022   -3992.0061    1658.5865   0.69830904   0.44204631    1.1953771  -0.26319663   0.23706261   0.40093055  0.067249776 
  127250       127189    270.30434    3734.9515    1659.8256   0.69778777    0.3938775    1.1948074  -0.27929647   0.23426284   0.37399721  0.064913931 
  127300       127239    257.35175   -2662.5201    1663.1955   0.69637393   0.43158757    1.1941381  -0.27611365   0.24600571   0.38477035  0.076925166 
  127350       127289    265.58227    3683.8676    1664.9738   0.69563017   0.40679447    1.1937326  -0.29328205   0.25542102   0.37316448  0.071491013 
  127400       127339    250.19709    79.679046    1663.5073   0.69624341   0.44819491    1.1895457  -0.26703283   0.21524868   0.42202575  0.077953305 
  127450       127389    259.15452    7922.2845    1663.3252   0.69631963   0.42086765    1.1887599   -0.2692394   0.23341257   0.38066467  0.076029806 
  127500       127439    236.47279   -3318.8021    1664.9454     0.695642   0.49164683    1.1923316  -0.26893293   0.27441862    0.4127512  0.073409932 
  127550       127489    238.42772    4622.7362    1667.6411   0.69451751   0.48943039    1.1959077  -0.27448259   0.30055851    0.3871979  0.076156559 
  127600       127539    228.82723   -1156.5937    1670.7336   0.69323197   0.51737023    1.1954007  -0.26324934   0.30445492   0.40520291  0.070961744 
  127650       127589    241.89369    -1626.167    1675.4989   0.69126037   0.47813137    1.1948786  -0.26603124   0.26418789   0.41151245  0.068462257 
  127700       127639    250.06719   -647.35072    1680.5963   0.68916372   0.45469614     1.195662  -0.25479687    0.2726637   0.35942152  0.077407794 
  127750       127689    263.58232   -1566.5021    1684.3762   0.68761716   0.41513898    1.1961511   -0.2819954   0.26273535   0.36533885  0.069060179 
  127800       127739    251.33451   -62.430503    1685.1411   0.68730504   0.44997849    1.1946995  -0.26962245    0.2736614   0.37344414  0.072495408 
  127850       127789    259.83594    1432.4868    1686.8237   0.68661947   0.42255588    1.1924672  -0.27152388   0.24226357   0.37494805  0.076868142 
  127900       127839    280.73857   -4930.0845     1686.926    0.6865778   0.36062745    1.1924747  -0.27848669   0.23675728   0.32870039  0.073656468 
  127950       127889    283.65281    4396.8291    1685.8976   0.68699663   0.35059256    1.1910749  -0.27447971   0.22586558    0.3385667  0.060639998 
  128000       127939    252.46061    1052.1302    1684.7943   0.68744651   0.44147838    1.1895361  -0.27591008   0.24979116   0.38116501   0.08643228 
  128050       127989    267.17813    1670.1339    1684.1068   0.68772715   0.39841054    1.1900773  -0.27786797   0.24359137   0.35961387  0.073073273 
  128100       128039    270.50511   -6092.3112     1682.912   0.68821541   0.38859331    1.1901181  -0.28887883   0.24921377   0.34140905  0.086849321 
  128150       128089    274.28362   -851.20862    1680.0856   0.68937318   0.37812117     1.190842  -0.27331676   0.24310033    0.3299435  0.078394095 
  128200       128139    267.27917   -1228.2696      1677.99   0.69023412   0.39995734    1.1919235  -0.27829829   0.26093026     0.342996  0.074329374 
  128250       128189    245.76903    4303.0803    1676.6218   0.69079739   0.46302101    1.1912511  -0.23954421   0.28075248   0.34154656  0.080266179 
  128300       128239    257.72577   -1420.7032    1678.6774   0.68995149   0.43007924     1.193738  -0.25722235   0.26638915   0.35152504  0.069387395 
  128350       128289      250.323   -5069.2272    1682.4169   0.68841793   0.45441047    1.1961343  -0.27467129   0.29471332   0.36377724    0.0705912 
  128400       128339    250.37346    2452.5472    1684.8747   0.68741371   0.45431498    1.1961883  -0.27456962   0.30036002   0.34458998  0.083934596 
  128450       128389    252.88456    67.195941    1685.9746   0.68696525   0.44562485    1.1949388  -0.22730203   0.24035428   0.36036781  0.072204782 
  128500       128439    275.08497    3047.1023    1688.1732   0.68607057   0.37949014    1.1945854   -0.2665266   0.23392439   0.34331611  0.068776243 
  128550       128489    268.42678   -5114.6778    1689.2603   0.68562907   0.39960582    1.1949724  -0.26063035   0.25001197   0.33311799  0.077106213 
  128600       128539    258.08851   -15.197223    1691.1202   0.68487502   0.43215483    1.1968884  -0.24896101     0.233711   0.37630012  0.071104726 
  128650       128589    271.71016    188.55953    1694.3276   0.68357852   0.39503001    1.2001254  -0.27820906     0.245574   0.35061737  0.077047696 
  128700       128639    255.21501   -2395.9177    1694.2509   0.68360948   0.44146751    1.1976867  -0.27369257   0.27193824   0.36690552  0.076316314 
  128750       128689    247.99497    1768.2677    1691.0067   0.68492097   0.46181593    1.1966417  -0.26810896   0.29422316   0.34031988  0.095381846 
  128800       128739    246.64129   -157.12606    1686.1976   0.68687441   0.46871998    1.1995347  -0.26297517   0.26299255   0.39751559  0.071187004 
  128850       128789    251.73852    1008.6467    1681.7066   0.68870869   0.45235318    1.1982713  -0.28746402   0.25274693    0.4030911  0.083979168 
  128900       128839     239.6235    1479.6945    1674.8916   0.69151101   0.48787634    1.1978969  -0.26006363   0.28245698    0.3721095  0.093373491 
  128950       128889    253.92522    2219.9751     1670.676    0.6932559   0.44920574    1.2016032  -0.27110684    0.2876022   0.35517331  0.077537068 
  129000       128939    264.51408    3458.6588    1670.2229   0.69344394   0.41818421    1.2019572  -0.26912105   0.28043943   0.33193425  0.074931574 
  129050       128989    260.64251     652.7474    1672.2831   0.69258963   0.42777713    1.2000784  -0.27676468   0.26553798   0.36951555  0.069488293 
  129100       129039    268.31718    -5435.918    1676.6624   0.69078065   0.40074443    1.1957862   -0.2666394   0.27305515   0.33011932  0.064209359 
  129150       129089    256.44796    1218.1796    1683.1633   0.68811266   0.43503485    1.1949074  -0.25963309    0.2301545   0.38262168  0.081891759 
  129200       129139    261.33935    688.41293    1691.7767   0.68460924   0.42144221    1.1958083  -0.25613405    0.2433851   0.36131108  0.072880066 
  129250       129189    267.20215     4275.966    1703.1265   0.68004695   0.40572856    1.1974665  -0.27142765   0.23459019   0.35712385   0.08544218 
  129300       129239    248.36286   -303.66631    1715.0395   0.67532319    0.4648262     1.200742  -0.22361032     0.242328   0.37891407  0.067194452 
  129350       129289    250.94975    3351.6651    1729.3116   0.66974972   0.46033416    1.2039151  -0.26665503    0.2568338   0.39363039  0.076525011 
  129400       129339    250.52146   -2885.6745    1741.9244   0.66490023   0.46631817    1.2086301  -0.26551643   0.26705084    0.4087392  0.056044564 
  129450       129389    268.88535    5136.1262    1750.3178   0.66171183   0.40990783    1.2066332  -0.26625275   0.26315663   0.35629382  0.056710122 
  129500       129439    247.77406     1161.224    1756.6532   0.65932534   0.47181405    1.2059852  -0.25398494    0.2549066   0.41162865  0.059263735 
  129550       129489    252.95692   -3227.1214    1764.1727   0.65651509    0.4573614    1.2068897  -0.23327035   0.29814978   0.33063171  0.061850257 
  129600       129539    259.90847   -2863.3234      1773.21    0.6531691   0.44122381    1.2113501  -0.23418548   0.25928129   0.34653751  0.069590486 
  129650       129589    275.47267    2103.0442    1781.4332   0.65015404   0.39752438    1.2137684  -0.23283389   0.24711974   0.32021863  0.063019901 
  129700       129639    257.39581    -161.4265    1788.0476   0.64774895   0.45421835    1.2168994  -0.21638061   0.24851829   0.36285913  0.059221542 
  129750       129689     257.3328   -240.91341     1794.716    0.6453422   0.45783784    1.2203322  -0.24145255   0.28497819   0.34993945  0.064372748 
  129800       129739     258.9364   -3497.9675    1799.7191    0.6435482   0.45472854    1.2219745  -0.24516431   0.28311685    0.3497419  0.067034094 
  129850       129789    277.15379    4384.2664    1800.8954   0.64312783   0.39885105    1.2200764   -0.2384101   0.22828746    0.3453183  0.063655395 
  129900       129839    252.42269    181.81094    1799.6869   0.64355972   0.47691074    1.2248561  -0.24352122   0.27255816   0.37229327  0.075580526 
  129950       129889    251.20667    2436.7593    1797.6327   0.64429512   0.48527369    1.2296159  -0.22705902   0.26015036   0.37874913  0.073433219 
  130000       129939    255.01992   -4789.3828    1795.5381   0.64504671   0.47601759    1.2316587  -0.25346714   0.25584428   0.40390641  0.069734038 
  130050       129989    269.09714   -3782.7954     1788.738   0.64749894     0.431046    1.2283989  -0.25150335   0.24414857   0.37505714  0.063343633 
  130100       130039    250.51802   -1083.8502    1779.4145   0.65089161   0.48148957    1.2237913  -0.23330135    0.2485867   0.39448141  0.071722812 
  130150       130089      253.107    6488.2821    1768.0529   0.65507429   0.47246345    1.2224365   -0.2298443   0.24204937   0.38243814  0.077820239 
  130200       130139    270.08476   -4571.9737    1758.1946   0.65874731   0.42128495    1.2215642  -0.24924195   0.22420041   0.39330133  0.053025164 
  130250       130189    279.52749    2603.3758    1749.4077   0.66205607   0.39135988    1.2196186   -0.2437508   0.23206012   0.33027245  0.072778106 
  130300       130239    257.84473    3010.9537    1744.5925   0.66388339   0.45788984    1.2219011  -0.24237311   0.27117268    0.3563809  0.072709378 
  130350       130289    236.92906    4344.6625    1744.2886   0.66399906     0.520036    1.2220727  -0.23877075   0.27190413   0.40914088  0.077761738 
  130400       130339    262.44687    3854.7181    1746.9623    0.6629828   0.44542922    1.2230769   -0.2291386   0.25152239    0.3568403  0.066205139 
  130450       130389     244.8094   -2275.3243    1753.5564   0.66048971   0.49765402    1.2230407  -0.22475089   0.24883363   0.38638776  0.087183521 
  130500       130439    247.78092    1844.9824    1762.0514   0.65730543   0.49576966    1.2299612  -0.23581394   0.28739247   0.35534738  0.088843748 
  130550       130489     255.1048   -1194.1668    1771.6183   0.65375592   0.47570848    1.2316011  -0.24185014   0.27727961   0.37033838  0.069940641 
  130600       130539    265.53844    1809.9479    1779.7051   0.65078533   0.43996915    1.2267774  -0.23359172   0.24102091   0.35879446  0.073745496 
  130650       130589    266.79193   -3355.4705    1785.6452   0.64862043    0.4339053    1.2244277  -0.24333405   0.23308693   0.37634745  0.067804965 
  130700       130639    259.48437    1489.7076     1789.322   0.64728763   0.45361962    1.2224892  -0.24945659   0.25455562   0.36767336  0.080847234 
  130750       130689    252.99539   -630.65674    1790.3112   0.64692998   0.47290101    1.2225433  -0.22791265   0.26207534   0.38000145   0.05873687 
  130800       130739    257.07302     6096.636    1794.5596   0.64539846   0.46088462    1.2226092  -0.24629229    0.2676299   0.37812831  0.061418705 
  130850       130789    234.45247    748.23475    1799.6525   0.64357199   0.52858119    1.2232796  -0.21934419   0.25062303   0.41291128  0.084391062 
  130900       130839    249.73738    2874.6448    1806.4716   0.64114265   0.48756107    1.2275497  -0.21796402   0.28432325     0.344964  0.076237839 
  130950       130889    254.10218   -4502.0497    1814.1629   0.63842444   0.47709637    1.2300182  -0.22458375   0.27698632   0.36111843  0.063575376 
  131000       130939    263.19369    2637.2057    1821.3124   0.63591834   0.45162714    1.2314877  -0.23710221   0.24269419   0.36453447  0.081500698 
  131050       130989     257.6532   -499.38126    1824.7422   0.63472305   0.47052721    1.2339709  -0.21687788   0.24619511   0.36981544  0.071394541 
  131100       131039    256.88661   -2420.3903    1824.4882   0.63481143    0.4740326    1.2352049    -0.227796   0.29254726   0.35130826  0.057973089 
  131150       131089    260.28872    4812.3322    1821.9139   0.63570839   0.46285199    1.2341049  -0.22533635   0.27750891   0.34635745  0.064321992 
  131200       131139    271.03018   -3643.1462    1818.7032   0.63683067   0.42841941       1.2315  -0.22421297   0.25413607   0.33454326  0.063953054 
  131250       131189    257.92097    364.64568    1816.1282   0.63773359   0.46868142    1.2329186  -0.22795983   0.25934469   0.37349376  0.063802806 
  131300       131239    263.35284    2146.5537    1814.0474   0.63846509    0.4521384    1.2324706  -0.22257845   0.25949051   0.36184152  0.053384823 
  131350       131289    253.69983   -5345.1171      1811.61   0.63932413   0.48031012    1.2320397  -0.22185773   0.29120554   0.33777841  0.073183897 
  131400       131339    265.43062    3150.4079    1805.6626    0.6414299   0.44418297    1.2306717  -0.23791303   0.27535119   0.33959792  0.067146887 
  131450       131389    273.06283   -4011.8889    1797.1003   0.64448599   0.42076726    1.2298708   -0.2296913   0.26805829   0.31368342  0.068716852 
  131500       131439      251.174    335.66236    1789.2701    0.6473064   0.48624916    1.2304946   -0.2355901   0.28757177   0.36491952  0.069347963 
  131550       131489    246.79611    3415.0525    1783.4358   0.64942397   0.50031255     1.231586  -0.22165047   0.28321062   0.37553478  0.063217628 
  131600       131539     273.5189   -2993.9398    1780.7982   0.65038585   0.41661697    1.2270718  -0.24540434   0.27196425   0.30506411  0.084992942 
  131650       131589    259.21394    1475.7187    1775.8218   0.65220846   0.45759945    1.2256678  -0.24189609   0.28322974   0.32096429  0.095301522 
  131700       131639     270.7484    2361.6738    1770.9405   0.65400615   0.42284878    1.2250945  -0.23665828   0.24648582   0.32196211  0.091059128 
  131750       131689    274.17912   -3425.4025    1766.5252    0.6556408   0.41338017    1.2257913  -0.25986316   0.26197667   0.33950521  0.071761451 
  131800       131739    268.63285    4176.5126    1761.8209   0.65739145   0.42617438    1.2221515  -0.22961678   0.26468258   0.32354302  0.067565556 
  131850       131789    269.98655   -2204.4872    1760.5038   0.65788326    0.4221191    1.2221074  -0.25304072   0.28108837   0.32904254  0.065028909 
  131900       131839    273.80607    71.587756    1759.2702   0.65834458   0.40866977    1.2199755  -0.24506742   0.27053041   0.32164952  0.061557254 
  131950       131889    254.32272   -1479.1024      1760.41    0.6579183    0.4662282    1.2198035  -0.24815663   0.28277644   0.35667433  0.074934057 
  132000       131939    264.02121   -149.94521    1761.4064   0.65754613   0.43450213    1.2168147  -0.25509278   0.27991909   0.34486256  0.064813261 
  132050       131989    261.09738   -561.07799    1759.9922    0.6580745   0.43956643    1.2132155  -0.24065019   0.27370077   0.33864971  0.067866139 
  132100       132039    265.43853    2372.2119    1760.1286   0.65802348   0.42785668    1.2143689  -0.24010795   0.28515591   0.30929202  0.073516689 
  132150       132089    239.85113    573.45648     1761.931   0.65735036   0.50560159    1.2162966  -0.24817897   0.32064726   0.35219556  0.080937746 
  132200       132139    240.26812    5526.5196    1764.4194   0.65642329   0.50388813    1.2158187  -0.21907529    0.2813195   0.36343198  0.078211949 
  132250       132189    244.68813   -4221.8206     1769.409   0.65457223   0.49099774    1.2160251   -0.2440756   0.29835359   0.37088205  0.065837702 
  132300       132239    248.69182    936.99743    1772.2974   0.65350544   0.47849066    1.2153812  -0.22907592   0.29283844   0.33425543  0.080472724 
  132350       132289    249.41336   -1482.9835    1775.3612   0.65237764   0.47762952     1.216658  -0.23763413   0.30333614   0.33081214  0.081115374 
  132400       132339    250.37807   -312.06101    1778.6735   0.65116276   0.47624187    1.2181289  -0.23300993   0.24045452   0.37565184  0.093145434 
  132450       132389    280.01565    2331.9757    1780.7532   0.65040228   0.39282739    1.2225325  -0.23047098   0.21825236   0.33168174  0.073364274 
  132500       132439    269.31592   -3764.5875     1781.997   0.64994831   0.42426604    1.2222672  -0.23988884   0.22267859   0.35751465  0.083961628 
  132550       132489    276.77861    6110.3058    1780.2609   0.65058214   0.40281584    1.2229294  -0.21068047   0.22977837   0.31975942  0.063958529 
  132600       132539    269.40623    -4622.564    1781.3339   0.65019028   0.42664586    1.2249146  -0.26799028   0.28343713   0.32128408  0.089914934 
  132650       132589    270.87905      3580.95    1777.6695   0.65153053   0.42222617     1.224859  -0.24869274   0.27993743   0.32536008  0.065621407 
  132700       132639    250.46687   -7021.8907    1770.9322    0.6540092   0.48057754    1.2227277  -0.23513448   0.30263177   0.31400233  0.099077915 
  132750       132689    247.82477    566.11887    1764.1193   0.65653495   0.48929819    1.2236196  -0.24411305   0.30561645   0.33367446  0.094120325 
  132800       132739    270.67596   -894.69197    1756.5937   0.65934766   0.42019819    1.2222292  -0.23362419    0.2814654   0.30661475  0.065742238 
  132850       132789    266.86156   -2177.4338    1752.5054   0.66088582   0.43033716    1.2210659  -0.23004061   0.27445235   0.30602457  0.079900856 
  132900       132839    268.87199   -644.77087    1747.5468   0.66276106   0.42341368    1.2200994  -0.25341128   0.25214078   0.32615936   0.09852482 
  132950       132889    270.27702    1897.6781     1743.233   0.66440113   0.41650195    1.2173509  -0.25486789   0.25490883   0.33882641    0.0776346 
  133000       132939    262.50809    1612.5733     1737.847   0.66646027   0.43509773    1.2129268  -0.24629889   0.23223745   0.34388685   0.10527233 
  133050       132989    271.69179    1604.0772    1733.7878    0.6680206    0.4094164    1.2144574  -0.22598478   0.23246091   0.33847625  0.064464015 
  133100       133039    271.43845    2285.1017    1735.4135   0.66739483      0.41246    1.2167503  -0.24486351    0.2272096   0.35588428  0.074229636 
  133150       133089    261.88774    2057.0718    1738.3382   0.66627194   0.44162062    1.2176116   -0.2462485    0.2492018   0.35398904  0.084678278 
  133200       133139    246.92095   -21.470557      1741.43     0.665089   0.48754604    1.2191894  -0.24334054   0.29945131   0.33866372   0.09277155 
  133250       133189    254.32554   -4981.1341    1744.1167   0.66406451    0.4648799    1.2184635  -0.26704543   0.32223926   0.32802763  0.081658445 
  133300       133239    267.33648    2544.6992    1743.6897   0.66422709   0.42360426    1.2157402  -0.22826918   0.28140237   0.30891642  0.061554658 
  133350       133289     242.1618   -1152.7919      1748.31   0.66247175   0.49767805    1.2152197  -0.24513638    0.2864132   0.37131498  0.085086247 
  133400       133339    253.26579    1337.5191    1753.8262   0.66038812    0.4676042    1.2180478  -0.23814807   0.28060217   0.35114249  0.074007608 
  133450       133389     249.5522   -1056.3145    1759.3043    0.6583318   0.47666756    1.2161075  -0.27414011   0.27035971    0.3987554  0.081692562 
  133500       133439    252.12071   -289.72797    1759.2596   0.65834854   0.46661876    1.2136694  -0.25523843   0.23929118   0.39974011  0.082825898 
  133550       133489    256.21562    1384.2287    1757.4104   0.65904126   0.45300634    1.2121904   -0.2428144   0.26444719   0.35192053  0.079453021 
  133600       133539    251.91974    593.64965    1755.6064   0.65971846   0.46927931    1.2157344  -0.22381112   0.24940063   0.35632138  0.087368425 
  133650       133589    255.88823    392.38737    1753.9384   0.66034588   0.46305602      1.22127  -0.23174844   0.25596429   0.36845014  0.070390041 
  133700       133639    248.58265    1331.0009    1753.6615   0.66045015    0.4872881    1.2238552   -0.2346109   0.24412289   0.39811614  0.079659975 
  133750       133689    257.56898     1190.113    1752.5721   0.66086066   0.46253793    1.2257321  -0.23790059   0.23868792   0.37192255  0.089828047 
  133800       133739    235.93308   -1167.8522     1750.072   0.66180475   0.52863293    1.2277185  -0.23395655   0.28727358   0.37950886  0.095807037 
  133850       133789    243.32348    3598.8276    1747.7815   0.66267205   0.51015244    1.2311362  -0.24247487   0.27799094   0.38272522  0.091911157 
  133900       133839    250.93774   -4737.9311    1745.4109   0.66357208   0.48738084    1.2309262  -0.24489805   0.27466432   0.37432481  0.083289756 
  133950       133889    263.91054     4278.316    1742.7555   0.66458316   0.44351051    1.2254951  -0.24106989   0.26149772   0.35028615  0.072796534 
  134000       133939    268.86931   -4730.9864    1741.6646   0.66499942   0.42755625    1.2242341  -0.26441432   0.25903993   0.34828301  0.084647634 
  134050       133989    275.78901    4234.8376    1740.2285    0.6655482   0.40346499    1.2206464  -0.24115298   0.24434542   0.31311736  0.087155188 
  134100       134039    263.79927    -3222.313    1740.9687   0.66526525    0.4381837    1.2198386  -0.25543808   0.23839083   0.37606714  0.079163808 
  134150       134089    277.78078    5187.8377    1742.3251   0.66474732   0.39509876    1.2181819  -0.25000412   0.23589686   0.31944796  0.089758066 
  134200       134139    250.57262   -3885.7224    1745.8279   0.66341358   0.47734061    1.2198041  -0.21544155    0.2841896   0.32740517  0.081187385 
  134250       134189    260.31754    9138.3631    1752.9628   0.66071339   0.44917904    1.2205174  -0.21223863   0.24744334   0.34689573  0.067078609 
  134300       134239    260.23297   -1179.1867    1763.2491   0.65685898   0.45116514    1.2222529  -0.24094554   0.24600573   0.35559315  0.090511799 
  134350       134289    287.14826    1122.0809    1772.6474    0.6533764   0.36965324    1.2204928  -0.25070271    0.2292956   0.33458244  0.056477914 
  134400       134339     268.5937   -3275.1512    1779.3961   0.65089833   0.42124453    1.2171057  -0.24163817   0.22914696   0.33624367  0.097492067 
  134450       134389    271.65277   -1949.2891    1783.5951   0.64936596   0.41269183    1.2176172  -0.23942806   0.22012319   0.34612636  0.085870347 
  134500       134439     253.2545   -1700.4055    1785.3287   0.64873544   0.47145443    1.2218645  -0.24667486   0.23253711   0.39534461   0.09024757 
  134550       134489    258.47244     775.3558    1784.6419   0.64898508   0.46038055    1.2262517  -0.24675137   0.24356045   0.38369736  0.079874099 
  134600       134539    242.85254   -877.99946    1783.0375   0.64956906   0.50655862     1.226147  -0.23893896   0.21663291   0.43564911  0.093215571 
  134650       134589    248.36238    232.41775    1777.9358   0.65143296   0.49086975    1.2267842  -0.24336749    0.2716668   0.39524891  0.067321523 
  134700       134639    250.17584    2588.5905    1772.0666   0.65359055    0.4854236    1.2267114  -0.21604978   0.26546513   0.36651088  0.069497367 
  134750       134689    249.90266    1054.7395    1767.2513    0.6553714   0.48631401    1.2267924  -0.25515877   0.28655256   0.35135307   0.10356715 
  134800       134739     258.0202   -575.74813    1759.2405   0.65835566   0.46157966    1.2261108  -0.24222761   0.25306638   0.37229629  0.078444597 
  134850       134789    256.48281   -1303.2074    1752.2377    0.6609868   0.46500241    1.2249782  -0.24795647   0.25082012   0.38336495  0.078773813 
  134900       134839    250.33644    4702.2124    1744.7037   0.66384109   0.48233603    1.2240997  -0.23370975   0.26703415   0.36223289  0.086778733 
  134950       134889    263.89631    94.657577    1741.7251   0.66497635   0.44287977    1.2248223  -0.25913371   0.24531167   0.37226532  0.084436489 
  135000       134939    277.55596    2273.0231    1739.1317   0.66596797   0.39633552    1.2187525  -0.25738672   0.24551996   0.32614324  0.082059028 
  135050       134989    280.00861   -1081.1433    1736.5691   0.66695071   0.38601154    1.2156959  -0.23815916   0.23004886   0.31320249  0.080919355 
  135100       135039     259.9699   -3323.3994    1736.8692   0.66683544   0.44587231    1.2161806   -0.2300787   0.24374866   0.36154123  0.070661129 
  135150       135089    265.86646    9715.0546    1739.8896   0.66567785   0.42914889     1.216929  -0.19851523   0.24857179   0.28965455  0.089437772 
  135200       135139    244.32924   -6823.2778    1749.7696   0.66191912   0.49892232    1.2228863  -0.23633842   0.25908962   0.38989544  0.086275678 
  135250       135189    278.41866    6299.7021    1758.7982   0.65852125   0.39801715    1.2229903  -0.22596952   0.23700017   0.30710847  0.079878037 
  135300       135239    255.28191   -4971.9527    1767.7556   0.65518444   0.46689534    1.2233128  -0.25261976   0.26107973   0.35937051   0.09906486 
  135350       135289    260.34332    112.50547     1773.582    0.6530321   0.45180461    1.2232194  -0.24430011   0.25725947   0.36374631  0.075098951 
  135400       135339    257.99038    3852.4826    1776.5214   0.65195161   0.45253364    1.2169764  -0.23258279   0.24485308   0.33491519   0.10534816 
  135450       135389    257.19521    -2139.386    1781.5498   0.65011148   0.45796116    1.2200478  -0.22032404   0.24293966    0.3544911   0.08085444 
  135500       135439    273.63048    661.95547    1789.3794   0.64726684   0.41251599    1.2233015  -0.24622721    0.2478355   0.32311211  0.087795584 
  135550       135489    275.76257   -5372.6962     1794.196   0.64552924   0.40688045    1.2239835  -0.23428716   0.26003481   0.30164374  0.079489062 
  135600       135539    245.47826    288.01484    1797.0003   0.64452184   0.49705106    1.2244196   -0.2235819   0.26579498   0.37997403  0.074863952 
  135650       135589     273.3446    2253.0351    1798.5763   0.64395709   0.41263279    1.2225712  -0.21852149   0.24252035   0.31881622  0.069817699 
  135700       135639    255.62269   -3915.8133    1799.0687   0.64378085   0.46489132    1.2223185  -0.22632275   0.25954049   0.35703034  0.074643242 
  135750       135689    255.20858    3939.1926    1800.3475   0.64332358   0.46635397    1.2225541   -0.2076332    0.2973567    0.3050095  0.071620968 
  135800       135739    275.01371   -2749.9728     1803.595   0.64216521   0.41000094     1.224885  -0.21066337   0.25008707   0.30425786  0.066319388 
  135850       135789    262.95402    2841.7429    1806.6026   0.64109614   0.44559214    1.2247426  -0.22220596   0.26505762   0.32894285  0.073797622 
  135900       135839    259.37287    2276.8174    1809.1886   0.64017979   0.45431332    1.2228526  -0.22642267   0.25669818   0.32674602  0.097291796 
  135950       135889    266.71572    1091.2103    1812.1723   0.63912575   0.43659943     1.226896  -0.22384775   0.22642305    0.3646432  0.069380924 
  136000       135939    263.14144   -1814.5128    1816.3741   0.63764726     0.449166    1.2288717  -0.23497536   0.24691546   0.36285122  0.074374669 
  136050       135989    260.34555    2635.7682    1820.4858    0.6362071   0.45946816    1.2308895  -0.20555795      0.25655    0.3442611  0.064215015 
  136100       136039     246.4678   -3288.8635    1827.6932   0.63369825   0.50073759    1.2310382  -0.23194598   0.28926245   0.36651094  0.076910187 
  136150       136089    263.00872   -1583.2789    1831.9896   0.63221208   0.45142487    1.2307373  -0.22358758    0.2698505   0.32632576  0.078836175 
  136200       136139    269.01705   -1008.1509    1834.4798   0.63135389   0.43514686    1.2322625  -0.23006507   0.24333578   0.34487063  0.077005522 
  136250       136189     254.1887   -2696.1431    1833.7302   0.63161198    0.4806776    1.2338558  -0.23058449   0.26601968   0.37089462  0.074347792 
  136300       136239    254.32742    6056.6901    1830.1763   0.63283846     0.480193    1.2337822  -0.23266913   0.27823625   0.35175138  0.082874494 
  136350       136289    251.64724   -4959.0055    1826.4213   0.63413954   0.48688873    1.2325364  -0.23448229      0.24428   0.38854366  0.088547361 
  136400       136339    281.17441     2808.192    1822.9346   0.63535244   0.39991691    1.2330556  -0.24475051   0.24051281    0.3290944  0.075060223 
  136450       136389    262.47859   -4364.7029    1818.3606   0.63695065   0.45572512    1.2334668  -0.24903947   0.26727623   0.35362337   0.08386499 
  136500       136439     259.0441    3563.1312    1811.9448   0.63920601   0.46530926    1.2328743  -0.25381692   0.25346505    0.3933157  0.072345441 
  136550       136489    252.86139   -1692.4824     1805.626   0.64144288   0.48142963    1.2306749  -0.24773616   0.25977118   0.40866907  0.060725548 
  136600       136539    249.19716    4120.3532    1799.0802   0.64377672   0.48882974    1.2272177   -0.2242994   0.24381083   0.37993355  0.089384763 
  136650       136589    266.37705   -2823.2098    1794.0489   0.64558217   0.43344657    1.2227397   -0.2467907   0.25625389   0.34477675  0.079206635 
  136700       136639    268.88213    3504.9669    1790.3068   0.64693158   0.42463475    1.2213505  -0.23369337   0.22967889   0.35847111  0.070178107 
  136750       136689    254.42423     498.1855     1789.692   0.64715378   0.46684713    1.2207232  -0.23828639   0.24096345   0.40146383  0.062706236 
  136800       136739    251.99183    587.51323     1792.511   0.64613605   0.47421576    1.2208845   -0.2230181   0.25458494   0.37262352  0.070025401 
  136850       136789    261.11379   -174.08558    1798.6173   0.64394242    0.4488126    1.2225103   -0.2403558   0.26485178    0.3496556   0.07466102 
  136900       136839    259.49029   -1150.4708    1803.8659   0.64206876    0.4544789    1.2233661  -0.23139133   0.24904095   0.35797336  0.078855922 
  136950       136889    245.15006    3320.3108    1808.8572   0.64029706   0.49907705    1.2254731  -0.23010783    0.2404035   0.39729867  0.091482711 
  137000       136939    244.08715   -4857.5042    1811.0969   0.63950525   0.50361095    1.2268576  -0.24342128   0.28250799    0.3813332  0.083191032 
  137050       136989     241.0494    7053.2277    1810.8745    0.6395838   0.51293077    1.2271763  -0.21359838   0.25435536   0.39057146  0.081602329 
  137100       137039    253.10446    -7029.731    1812.9513   0.63885112   0.47993643    1.2299019  -0.22106915   0.26937146   0.35395565  0.077678455 
  137150       137089    270.30224    6607.5016    1817.1625   0.63737061   0.43029852    1.2312222  -0.23441151   0.26260226   0.33969444  0.062413334 
  137200       137139    253.66317   -7080.9953    1819.9226   0.63640397   0.48067726    1.2322982  -0.24473006    0.3053116   0.33431997  0.085775753 
  137250       137189    263.46523    3162.2211    1819.4194   0.63657998   0.44901073    1.2296759  -0.21827989   0.26499899   0.31448365  0.087807977 
  137300       137239    245.82804   -7132.5192    1817.1351   0.63738023   0.50420087    1.2326059  -0.23797991   0.28190693   0.39977183  0.060502027 
  137350       137289    265.26264    2687.2869    1812.5103   0.63900657   0.44368964    1.2296807  -0.24423246   0.25623519   0.34687422  0.084812693 
  137400       137339    272.04115   -5295.6928    1805.0252   0.64165639   0.42095096    1.2270272  -0.23651979    0.2408694   0.34624122  0.070360125 
  137450       137389    246.70982    6253.6781     1797.402   0.64437782   0.49545779    1.2264755  -0.23384641    0.2858668   0.34950158  0.093935811 
  137500       137439    259.70545   -2944.3426    1790.8072    0.6467508   0.45918787    1.2287125  -0.23277776   0.26890498   0.33683734  0.086223316 
  137550       137489    265.84529    832.77958    1784.7373    0.6489504   0.44059346    1.2283109  -0.23687779    0.2419805   0.35263654  0.082854219 
  137600       137539     257.7811    439.16824    1776.7151   0.65188054    0.4606576    1.2244803  -0.21605478   0.24777348   0.33596081  0.092978094 
  137650       137589    264.94757   -118.66229     1769.862   0.65440467   0.44399971    1.2290571  -0.24389159   0.26637775   0.33712475  0.084388798 
  137700       137639    267.73319   -405.24769    1762.7108   0.65705955   0.43512809    1.2284395  -0.24622122   0.24588064   0.35263873   0.08282994 
  137750       137689    254.16311   -1309.6312    1753.4626   0.66052505   0.47072892    1.2238313  -0.24422276   0.24899714    0.3667808  0.099173735 
  137800       137739    256.45725    168.10835    1743.2699   0.66438707   0.46381629    1.2237163  -0.23495928   0.26685439   0.33794773  0.093973449 
  137850       137789    264.32278   -3370.7548    1734.6075   0.66770494   0.43659455    1.2198007  -0.23619855   0.27523395   0.30198022  0.095578925 
  137900       137839    261.12544    2743.0281    1728.4212   0.67009475   0.44419072    1.2179229  -0.24525424   0.26155557    0.3541218  0.073767593 
  137950       137889    260.47068   -3449.0785    1724.4452   0.67163975   0.44576645    1.2175586  -0.23503973   0.26270938   0.33800743   0.08008937 
  138000       137939    240.28151    10850.174    1722.9779   0.67221174   0.50456484    1.2165351  -0.23465223   0.27542471    0.3516345   0.11215787 
  138050       137989    253.07703   -5290.0684    1724.8282   0.67149064   0.46638982     1.216274  -0.25466102   0.23981933   0.39652723  0.084704275 
  138100       138039     285.4334    4162.1862    1728.5098    0.6700604   0.36659582    1.2123541  -0.25100487   0.22512619   0.32018026   0.07229423 
  138150       138089    253.81089   -4106.4557    1732.6963   0.66844143    0.4557075    1.2077662  -0.23946247   0.22796847   0.36850054  0.098700956 
  138200       138139    261.44902    1049.3511    1736.5338   0.66696426   0.43310841    1.2077994  -0.25232249   0.21884666   0.37532539   0.09125885 
  138250       138189    282.72005    1827.3243    1736.8678   0.66683601   0.36733228    1.2050508  -0.24152952   0.21948365   0.30072644  0.088651708 
  138300       138239    279.64968   -6883.6397    1737.5827   0.66656165   0.37370743    1.2023282  -0.26923132   0.24923854   0.30688845   0.08681176 
  138350       138289    283.66773   -3021.2556    1734.8357   0.66761708    0.3591116    1.1996381  -0.25006874   0.24504121   0.28749122  0.076647905 
  138400       138339    247.95118    1286.3263    1732.2031   0.66863172   0.46506353    1.1997595  -0.22529099   0.24023772   0.36582587   0.08429093 
  138450       138389    254.20405    3604.6346    1733.7658    0.6680291   0.44793852    1.2011622  -0.23545573   0.24743391   0.36157095  0.074389392 
  138500       138439    279.88884   -1750.6669    1738.0612   0.66637812   0.37101271    1.2003421  -0.25517302   0.23294671   0.31622014  0.077018875 
  138550       138489    245.83829   -1911.1405    1740.7935    0.6653322   0.47177275    1.2002081  -0.24409863    0.2594716   0.36933719  0.087062591 
  138600       138539    247.57503    1317.6458    1741.7253   0.66497627   0.46575367    1.1993351  -0.23823512   0.25537241   0.37794751  0.070668872 
  138650       138589    239.79689    7165.4912    1742.8464   0.66454851   0.48762634    1.1981606  -0.25399416   0.26480274   0.38978766  0.087030089 
  138700       138639    249.37838   -2660.4724     1743.232   0.66440151   0.45735028    1.1962752  -0.25980372   0.26990515   0.36800363  0.079245223 
  138750       138689    270.66261    2665.6558    1742.4045   0.66471706   0.39292317    1.1949147  -0.25882854   0.25987579    0.3239743  0.067901626 
  138800       138739    255.64066    -5003.652     1741.363   0.66511462   0.43680738    1.1942878  -0.25736417   0.26867162    0.3511836  0.074316333 
  138850       138789    262.55734    1983.6252    1740.5541    0.6654237    0.4129625    1.1909375  -0.22679637   0.21556791   0.35446486  0.069726095 
  138900       138839    268.32589    533.64487    1742.7409   0.66458873   0.39627948    1.1913471  -0.22721372   0.22278216   0.33092674  0.069784285 
  138950       138889    261.72149   -2628.9812    1749.4165   0.66205274   0.41872715    1.1942255  -0.24632299   0.23183451    0.3464696  0.086746027 
  139000       138939    278.22998     3363.914    1754.5951   0.66009872   0.37145283    1.1958669  -0.23688481   0.22888409   0.30868101  0.070772542 
  139050       138989    276.31926   -4858.0753     1760.162     0.658011   0.37706581    1.1958183  -0.25542566   0.26127162   0.31093902   0.06028083 
  139100       139039    258.75867    757.22921    1764.1636   0.65651847   0.42697071      1.19369  -0.22077566   0.24400502   0.33562816  0.068113199 
  139150       139089    254.27012    4907.3024    1771.4631   0.65381319   0.44305751    1.1964769  -0.20441724   0.24236675   0.32630604  0.078801954 
  139200       139139    251.88172    1439.8355      1782.87   0.64963009   0.45349791    1.1998404  -0.23329187   0.25218216   0.36524869  0.069358926 
  139250       139189    270.05672   -2002.5001     1792.267   0.64622402    0.3999028     1.200099  -0.24757706   0.24015547   0.33760274  0.069721666 
  139300       139239    256.59436    2807.9885    1797.7965   0.64423643   0.43947265     1.199779  -0.21760537   0.22327587   0.36407857  0.069723573 
  139350       139289    249.40716   -4084.4764    1803.3186   0.64226365   0.46403748    1.2030476  -0.23171346    0.2495787   0.37317622  0.072996024 
  139400       139339    262.23549     1435.492    1806.2311   0.64122802   0.42831085    1.2053322    -0.224772   0.25359114   0.33719318  0.062298534 
  139450       139389     259.2572    1350.6219    1809.1171   0.64020508   0.43786683    1.2060633  -0.22086644   0.23103631   0.36987964  0.057817325 
  139500       139439    263.29575   -1523.6562    1810.2232   0.63981392   0.42492455    1.2050875  -0.23019207    0.2477372   0.33597059  0.071408831 
  139550       139489    263.22518   -428.31967    1809.6101   0.64003067   0.42603094    1.2059848  -0.24304523   0.24941141   0.34701952   0.07264524 
  139600       139539    258.87034   -1281.2688    1807.4671   0.64078953    0.4400601    1.2071103   -0.2107987   0.26626891    0.3142723  0.070317599 
  139650       139589      255.318     1155.097    1806.1561   0.64125464   0.45153311    1.2080575  -0.23274826   0.24422587   0.36316771    0.0768878 
  139700       139639    258.82825    2209.3716    1803.7585     0.642107   0.44580108    1.2127265  -0.23414001   0.21038739   0.40016287  0.069390825 
  139750       139689    261.34177   -1210.3427    1800.2419   0.64336131   0.43819322    1.2125664  -0.24005583   0.24132528   0.37849627  0.058427501 
  139800       139739    255.27666   -1200.5119    1795.2534   0.64514903   0.45504399    1.2114459  -0.21523186   0.22364799   0.37918941  0.067438462 
  139850       139789     260.7192   -797.59889    1793.3952   0.64581746   0.44016441    1.2126929  -0.24943161   0.24452198   0.37897438  0.066099654 
  139900       139839    242.11732    3247.3107    1792.0747   0.64629335   0.49798282    1.2153927  -0.21488667   0.22691526   0.41424801  0.071706206 
  139950       139889    257.42768    1044.0811    1795.1457   0.64518773   0.45544716    1.2182227  -0.23869853   0.25409529   0.36452354  0.075526863 
  140000       139939    265.01625     67.59978    1796.9443   0.64454194   0.43387224    1.2191332  -0.23150423   0.25700971   0.32570986  0.082656905 
  140050       139989    253.23385    618.95068    1795.7966   0.64495389   0.46893902    1.2192879  -0.22745256   0.25594411   0.37503315  0.065414317 
  140100       140039    254.17214    727.11804    1794.9229    0.6452678    0.4668306    1.2199597  -0.24218962   0.25419305   0.39255268  0.062274494 
  140150       140089    280.29449    3588.4132    1793.4685   0.64579109   0.38592188    1.2164533  -0.24400632   0.22067876   0.33401443  0.075235012 
  140200       140139     256.0534   -3909.7463    1791.3264   0.64656332   0.45659436    1.2152978  -0.22048098   0.24210137   0.36841867  0.066555299 
  140250       140189    275.33074    1036.9932    1790.8184   0.64674676   0.40080769    1.2166312  -0.23721299   0.22708797   0.34165027  0.069282439 
  140300       140239    264.06096   -2235.7287    1789.0765   0.64737643   0.43585322    1.2182836  -0.22884813   0.25422455   0.35384129  0.056635522 
  140350       140289    241.91275   -3397.4268    1787.5172   0.64794117   0.49871103    1.2155147  -0.23527506   0.27489626   0.40005308  0.059036755 
  140400       140339    254.30866    2636.3267    1785.4683   0.64868469   0.46356342    1.2170971  -0.22914009   0.25892904    0.3565186  0.077255867 
  140450       140389    252.61748   -1085.3297    1786.2071   0.64841641   0.47130412    1.2198267  -0.22694066   0.27406703   0.35795202  0.066225735 
  140500       140439    255.60337    1405.8477    1787.8011   0.64783828   0.46313862    1.2205086  -0.25627079   0.28390609   0.37130072  0.064202598 
  140550       140489    269.16328    1453.6858    1785.0727   0.64882845   0.41899236    1.2165412  -0.23276526   0.25817327   0.33644904  0.057135305 
  140600       140539    257.25007   -3152.2512    1781.4248   0.65015709    0.4496849    1.2119341  -0.25193424   0.27056285    0.3678237  0.063232584 
  140650       140589    272.10845    4959.8073    1774.6368   0.65264394   0.40190932    1.2081849  -0.24739241   0.24412287    0.3431867  0.061992154 
  140700       140639    258.42852   -2500.2218    1767.5393   0.65526461   0.44266733    1.2084084   -0.2317058   0.25672258   0.34051289  0.077137661 
  140750       140689    262.00875   -1814.1029    1763.6515   0.65670909   0.43245314    1.2088026  -0.24599947   0.26088215   0.35480015  0.062770306 
  140800       140739    267.93823   -1455.5262    1760.5699   0.65785855   0.41564499     1.209564   -0.2284798   0.23070442   0.36661855  0.046801815 
  140850       140789    265.17167    33.013479    1761.3752   0.65755777    0.4198915     1.205613  -0.26455611   0.21504933   0.40920905  0.060189232 
  140900       140839    255.80833    3788.4113    1762.1637   0.65726354   0.44317588    1.2011531  -0.24369423   0.24816121   0.37165232  0.067056582 
  140950       140889    254.72759   -552.62368    1764.7117   0.65631456   0.44510253    1.1998775  -0.23075541    0.2370395   0.38219525   0.05662319 
  141000       140939    269.00768    2058.0743    1771.0624   0.65396114   0.40269746    1.1997853  -0.24916883   0.21456952   0.37573833  0.061558438 
  141050       140989    257.16489    350.12841    1774.4352   0.65271809   0.44028616     1.202283  -0.24057332   0.25731138   0.34899103  0.074557072 
  141100       141039    241.04971    1968.5725    1777.8653    0.6514588   0.49071398    1.2049605  -0.24082258   0.23382592   0.42181906  0.075891585 
  141150       141089    274.69052    2173.2998    1781.4945   0.65013167   0.39641195    1.2103384  -0.23020564   0.21933776   0.33298197  0.074297855 
  141200       141139    262.85457   -1395.2806    1785.8637   0.64854109   0.43609227     1.214948   -0.2443745    0.2271731    0.3838318   0.06946187 
  141250       141189     259.1677   -4805.9921    1788.2938   0.64765977   0.45001246    1.2179438   -0.2407374   0.25869328   0.36332459   0.06873199 
  141300       141239    263.09669   -4284.2551    1788.0185   0.64775951   0.44016302    1.2197362  -0.24749851   0.24667521   0.36616005  0.074826267 
  141350       141289    252.71354   -332.49791    1785.0707   0.64882919   0.46799533    1.2168025  -0.23273593   0.23401236   0.39114605  0.075572851 
  141400       141339    257.31646    252.57511    1782.4338   0.64978907   0.45280335    1.2152493  -0.23956377   0.23788738   0.38624691  0.068232824 
  141450       141389    249.99354    857.95955    1779.6204   0.65081631    0.4755281    1.2162758  -0.22756989   0.23014907   0.37447219  0.098476732 
  141500       141439    256.25147   -3603.9721    1778.1048   0.65137103   0.46210214    1.2213924     -0.25942   0.23343234   0.39001481  0.098074989 
  141550       141489     261.1771    2543.2582    1773.4097   0.65309556   0.45201574     1.225901  -0.23816524   0.25888095   0.33646714  0.094832892 
  141600       141539    258.03728    1353.6424    1768.6915   0.65483775   0.46370349    1.2282853  -0.23166883   0.22957204   0.38073296   0.08506732 
  141650       141589    248.26295    4645.3418    1765.9008   0.65587261   0.49408086    1.2297007  -0.24662404   0.23800363   0.41880846  0.083892809 
  141700       141639    265.89456   -2993.1238    1763.1314    0.6569028   0.43745237    1.2253158   -0.2322619   0.20427959   0.37228302  0.093151655 
  141750       141689    267.06801   -1336.0046    1761.3941   0.65755073   0.43248433    1.2238248  -0.23826246    0.2211318   0.36123843  0.088376567 
  141800       141739    266.38853    1024.5161    1759.1713   0.65838158   0.43357664    1.2229037    -0.235179   0.20861731   0.39059689  0.069541444 
  141850       141789    275.95813    2288.1888    1758.6442    0.6585789   0.40659478    1.2242772  -0.23253094   0.20642288   0.34306761  0.089635232 
  141900       141839    251.70965   -4644.4328    1762.3221   0.65720447    0.4789418    1.2247744   -0.2469741   0.27230077   0.38495666  0.068658481 
  141950       141889    260.91939    749.70735    1764.0295   0.65656838   0.45056344    1.2236851  -0.21873748   0.26504442   0.33886248  0.065394021 
  142000       141939    251.04707   -1514.5972    1769.4675   0.65455059   0.48013686    1.2240062  -0.23656742   0.29737036   0.35927244  0.060061484 
  142050       141989     267.3544    -1934.347    1774.8474    0.6525665   0.42897626    1.2211653  -0.24604766   0.25954315   0.34561451  0.069866253 
  142100       142039    264.90347    2135.4804    1776.5035   0.65195819   0.43111508    1.2160418  -0.24520323   0.26663671   0.32561186  0.084069731 
  142150       142089    255.38954   -1193.8197    1774.5306     0.652683   0.45631656    1.2130529  -0.24179465   0.24491952   0.37867979  0.074511906 
  142200       142139    264.98724    4224.9613    1768.7115   0.65483036   0.42589083    1.2110658  -0.22976372   0.23359923   0.35984061  0.062214717 
  142250       142189    257.56946   -941.33999    1765.9454   0.65585603   0.44665861    1.2098542  -0.22743547   0.20273878    0.3873255  0.084029798 
  142300       142239    264.03209   -1186.8725    1765.1294   0.65615923   0.42940968    1.2117545  -0.23207167   0.23382616   0.35269399  0.074961212 
  142350       142289    276.93174     977.2432    1761.6269   0.65746383   0.39005353    1.2106209  -0.25698031   0.24350367   0.32882882   0.07470135 
  142400       142339    268.15213    543.24745    1758.8105   0.65851665   0.41499458    1.2095473  -0.22898753    0.2090687   0.35874771  0.076165696 
  142450       142389    257.71675   -244.46315    1759.4073   0.65829326    0.4471071    1.2107391  -0.21967553   0.21259185   0.38759673  0.066594045 
  142500       142439    235.55589    157.48813    1762.2447   0.65723333   0.51646459    1.2144325  -0.21520852   0.25065104   0.41057039  0.070451672 
  142550       142489    258.13691   -4918.2489    1768.8694    0.6547719   0.44871734    1.2135943  -0.23384198   0.24498285    0.3522418  0.085334672 
  142600       142539    263.13133    3303.3421    1773.5808   0.65303253   0.43475994    1.2144357  -0.23763746   0.22616167   0.37498892  0.071246819 
  142650       142589    256.55215    719.44475    1776.8264   0.65183969   0.45384637    1.2140276  -0.24101762   0.24468726   0.38274457  0.067432167 
  142700       142639    259.11343   -223.47364    1778.0619   0.65138676    0.4443242    1.2120947  -0.23768392   0.24311853   0.36214994  0.076739633 
  142750       142689    235.70259    859.56249    1775.1626   0.65245065   0.51300838     1.211411  -0.23054689   0.24783419   0.39705622  0.098664851 
  142800       142739    251.84896    1682.1395    1773.4344   0.65308646   0.46827012    1.2145155  -0.22998664   0.24642978   0.38327747  0.068549509 
  142850       142789    264.54331     3043.989    1774.1635   0.65281806   0.43164629    1.2155059  -0.22678125   0.20480171   0.36713126  0.086494573 
  142900       142839     262.6801    4762.7656    1777.0162   0.65177008   0.44099256    1.2193313  -0.22580225   0.21798832   0.37540903  0.073397454 
  142950       142889    273.29485   -1300.1777    1783.0126   0.64957812   0.41145713    1.2212481  -0.25438078   0.23437386   0.36738025  0.064083807 
  143000       142939    259.51674   -5320.9422    1785.5047   0.64867149   0.45025116    1.2192167  -0.23510766   0.25634473   0.35234419  0.076669902 
  143050       142989    267.26169    2009.2875     1786.406   0.64834419    0.4236579    1.2155722  -0.22151517   0.22938102   0.33041929  0.085372757 
  143100       143039    259.78975    -1197.411    1786.7397   0.64822313   0.44657149     1.216346  -0.22058594   0.22049526   0.37300823  0.073653936 
  143150       143089    270.64665   -1514.5577    1785.5229   0.64866485   0.41541703    1.2173612  -0.24162303   0.22724747    0.3742667  0.055525899 
  143200       143139    259.26731    -6756.158    1781.5182   0.65012299   0.44754944    1.2157759  -0.25149608   0.29113588   0.35351774    0.0543919 
  143250       143189    233.79257    2547.2309     1776.567   0.65193488   0.51982677    1.2125699  -0.22179331   0.25308443   0.40112367  0.087411981 
  143300       143239    234.41933   -1684.1591    1774.3623   0.65274491   0.52358408    1.2181843  -0.24140462   0.27934747   0.39889805  0.086743172 
  143350       143289    251.98861    6577.1354    1773.0141   0.65324126   0.47329596    1.2199551   -0.2456514   0.28317735   0.37713835  0.058631655 
  143400       143339    242.11016    -2529.441    1771.3548   0.65385318   0.49906539     1.216454  -0.22562047   0.28096263   0.38556466  0.058158572 
  143450       143389    272.17368    4114.1475    1773.9039    0.6529136   0.40894926    1.2154181  -0.22907247   0.20818001   0.35966743   0.07017429 
  143500       143439    252.60214    1623.7756     1778.027   0.65139953   0.46819427    1.2166714  -0.22966819   0.24265609   0.36752811  0.087678257 
  143550       143489    267.93468    2259.4897    1783.0427   0.64956717   0.42544487    1.2193533  -0.24170594   0.25298734   0.34620403  0.067959444 
  143600       143539    267.52504    970.81584    1786.4864   0.64831502   0.42321103    1.2159057  -0.21164822   0.21086077   0.36920066  0.054797817 
  143650       143589    263.72728   -1674.4288    1790.5173    0.6468555    0.4338721    1.2153137  -0.24303264   0.23303306   0.36726175  0.076609929 
  143700       143639    251.68014    -5047.734    1790.7828   0.64675961   0.47105271    1.2167979  -0.23770894   0.27414051   0.34505397  0.089567168 
  143750       143689    259.66929    3000.4097     1789.342   0.64728038   0.44677614    1.2161937  -0.23308766   0.27702231   0.33242987  0.070411616 
  143800       143739    265.49346   -2611.4228    1787.1089   0.64808918   0.42749282    1.2141678  -0.24000468   0.23305868   0.35826129  0.076177527 
  143850       143789    255.79922    3861.6456    1783.4506   0.64941859   0.45516531    1.2131156  -0.23052575   0.26174295   0.35823465  0.065713467 
  143900       143839    264.55855   -653.87411     1781.718    0.6500501   0.42883971    1.2127445  -0.22962013   0.25422258   0.33984184  0.064395419 
  143950       143889    260.57619   -1012.6988    1780.2269   0.65059459   0.43823182    1.2103366  -0.24053882   0.25903603   0.34517129  0.074563316 
  144000       143939    269.09405   -141.33044    1776.6019   0.65192207   0.40857307    1.2059168  -0.23384057   0.23271452   0.35122982  0.058469299 
  144050       143989    257.17738   -721.47394    1775.4692   0.65233797   0.44305365    1.2050875  -0.23017849   0.25921026   0.34229368  0.071728188 
  144100       144039    243.54295    3287.4622    1778.6596   0.65116788   0.48497534    1.2066094  -0.23663176   0.26827857   0.36939748  0.083931058 
  144150       144089     261.2633   -6714.8932    1783.1636    0.6495231   0.43290764    1.2070483  -0.23326108   0.27567207    0.3172474  0.073249253 
  144200       144139    255.86088    5400.1051    1788.3777   0.64762939   0.45108222    1.2092152  -0.23599117   0.24387782   0.35944688  0.083748684 
  144250       144189    252.64645    639.34026    1794.7446   0.64533193   0.46430423    1.2129126   -0.2209634    0.2436772   0.35376442  0.087826012 
  144300       144239    273.64613    2335.4432     1802.727   0.64247441   0.40633652    1.2171684  -0.23297477   0.23173852   0.34210088  0.065471891 
  144350       144289    247.23373    2288.9725    1808.3162   0.64048863   0.48630085     1.218871  -0.21278022   0.24894422   0.36540884   0.08472801 
  144400       144339    263.43996    596.05668    1813.5238   0.63864944   0.43937842    1.2199687   -0.2400741   0.21371607   0.39103256  0.074703893 
  144450       144389     256.7522   -1701.0423    1812.5303    0.6389995   0.45743387    1.2182079   -0.2341186   0.23855031   0.36463348  0.088368676 
  144500       144439    269.42679    909.36234    1807.2294   0.64087381   0.42019005    1.2185197  -0.23842958   0.25627149   0.31673752  0.085610611 
  144550       144489    271.22532   -4997.2799    1800.7209   0.64319015   0.41596731    1.2196262  -0.23828322   0.25698874   0.33603044  0.061231347 
  144600       144539    240.98618    965.00337    1794.7274   0.64533809   0.50855357    1.2226118  -0.22548273   0.28230702   0.36396246  0.087766816 
  144650       144589    232.35748   -326.09147    1792.1055   0.64628226   0.53688572    1.2253765  -0.23909975   0.28446196   0.39054932   0.10097419 
  144700       144639    248.09763   -1639.1357    1789.2617   0.64730942     0.490669    1.2257989  -0.24487574   0.27188839   0.37963049  0.084025855 
  144750       144689    261.46374    7038.4581     1786.658   0.64825274   0.45059919    1.2253338  -0.24108046   0.25129019   0.36615956  0.074229906 
  144800       144739    273.65586    -2921.576    1785.1257   0.64880921   0.41386782    1.2247285   -0.2459125    0.2310784   0.36960053  0.059101387 
  144850       144789    264.91094    3462.2551    1782.8083   0.64965257   0.43743358    1.2223825  -0.23513773   0.27059808   0.33494443  0.067028791 
  144900       144839    246.21721    1067.3879    1780.1012   0.65064052   0.48849442    1.2180525  -0.24269681   0.25519322   0.40483584  0.071162183 
  144950       144889     258.6842    1309.1119    1778.0034   0.65140819   0.44946783    1.2159665  -0.22298277   0.22653797   0.36774846  0.078164181 
  145000       144939    277.90893    433.02899    1778.0451   0.65139292   0.39263993    1.2161028  -0.23679392   0.23970662   0.31682339  0.072903838 
  145050       144989    253.88152   -203.32545    1779.5973   0.65082473   0.46571815    1.2179861  -0.24430573   0.23402432   0.39855338  0.077446181 
  145100       145039     254.2841   -1583.2904    1780.6694    0.6504329   0.46681382    1.2202747  -0.24029687   0.24921489   0.39099166  0.066904126 
  145150       145089    233.41236    7343.8341    1782.5436   0.64974904    0.5301221    1.2217386  -0.21126207   0.26789295   0.41543856  0.058052669 
  145200       145139    253.11144   -4853.5782    1788.1478   0.64771265   0.47314778     1.223134  -0.22711897    0.2715465   0.36220157  0.066518686 
  145250       145189    257.39625    4349.6132    1795.7512   0.64497018   0.46198206    1.2246644  -0.24042846   0.26934057   0.36035614  0.072713807 
  145300       145239    235.90044   -2754.0722    1800.9161   0.64312043   0.52360651    1.2225954  -0.22978149   0.27936575   0.41546922   0.05855303 
  145350       145289    250.53162    3897.6966    1806.2171   0.64123297   0.47814071    1.2204827  -0.23096819   0.25172872   0.38629098  0.071089203 
  145400       145339    241.58716    2529.0796    1810.0883   0.63986158   0.50383676    1.2196757  -0.23729786   0.24883038   0.43604639  0.056257849 
  145450       145389    278.84964   -1307.2614    1813.4704   0.63866826   0.38919502    1.2154452  -0.24819013   0.21364598   0.35920132  0.064537844 
  145500       145439    267.67775   -3428.9768    1816.5705   0.63757831   0.42009642    1.2132436  -0.23776063   0.21222318   0.38194179  0.063692079 
  145550       145489    260.39653    5488.4407    1818.3687   0.63694781   0.43992431    1.2114967  -0.21874372   0.20436317   0.38598164  0.068323219 
  145600       145539    253.45528   -5407.8046    1820.1276   0.63633231   0.46573915    1.2167442  -0.21113951   0.21047915   0.40959946  0.056800061 
  145650       145589     276.6027    8917.2114    1822.9405   0.63535039   0.39920641    1.2187988  -0.23650517    0.2001525   0.37270405  0.062855024 
  145700       145639    255.29609   -8318.3177    1823.9272    0.6350067   0.46439998    1.2208594  -0.22532142   0.25223755   0.36613222  0.071351628 
  145750       145689    258.01893    6207.2351    1823.4416   0.63517581   0.45672969    1.2212571   -0.2211213   0.26270163   0.34533674   0.06981263 
  145800       145739    252.27026   -1330.8559    1821.7675   0.63575949   0.47458493    1.2220787  -0.21310135    0.2351687    0.3912984  0.061219184 
  145850       145789    272.32943    791.41747    1820.1731    0.6363164    0.4148574    1.2217878  -0.25382992   0.22207778   0.36925756  0.077351971 
  145900       145839    265.41686    76.719459    1813.5073   0.63865526   0.43269699     1.219145  -0.24377907   0.25788525   0.33213145  0.086459358 
  145950       145889    257.94775   -913.64987    1803.5387   0.64218526   0.45479043    1.2191069  -0.22513384    0.2869952   0.32716854  0.065760542 
  146000       145939    256.03224    -2.480263    1796.2221   0.64480108    0.4637656    1.2224063  -0.23244623    0.2873227   0.32653675  0.082352375 
  146050       145989    257.66689       2885.5    1790.6742   0.64679883   0.45985791    1.2233422  -0.22942357   0.25319257   0.35736133  0.078727585 
  146100       146039    249.78599   -3034.4903    1787.4266     0.647974   0.48290588    1.2230385  -0.22209966   0.28502389   0.35039704  0.069584602 
  146150       146089     248.1414   -894.41772    1786.8067   0.64819881   0.48668548    1.2219451  -0.21642834   0.28836717   0.32941784  0.085328809 
  146200       146139    267.14847    1573.1336    1789.4127   0.64725481   0.43271208    1.2242909  -0.23471498   0.26778066   0.32996235  0.069684051 
  146250       146189    278.08115    193.41128     1794.494   0.64542203   0.39693629    1.2209094  -0.22191964    0.2482723   0.30588842  0.064695208 
  146300       146239    248.00799    6203.5139    1801.6747   0.64284966   0.48638016    1.2212445  -0.21835546   0.26776134   0.35649614  0.080478139 
  146350       146289    269.56961   -916.51054    1808.3109   0.64049052    0.4204192     1.219172  -0.22665985   0.23359158   0.34243746  0.071050016 
  146400       146339     276.2829    3147.4838    1815.9417    0.6377991   0.40080188    1.2194467  -0.21822891   0.23543641   0.31857227  0.065022111 
  146450       146389    250.04538   -2023.9828    1824.7289   0.63472771   0.48482102    1.2257223  -0.22351136   0.26946971   0.35694591  0.081916761 
  146500       146439     277.1528   -1244.1608    1832.2041   0.63213809    0.4068847    1.2281071  -0.21721885   0.26671206    0.3007248  0.056666693 
  146550       146489    254.16741   -993.37365    1839.5177   0.62962481   0.47625863    1.2293737  -0.20401915    0.2697754   0.34308015  0.067422229 
  146600       146539    278.40012   -5150.1482    1846.0569   0.62739451   0.40336178      1.22828  -0.23189784   0.28065804   0.27613029  0.078471289 
  146650       146589    274.30418    -1048.909     1847.843   0.62678809    0.4118278    1.2246095  -0.23534082   0.27974064   0.31093811  0.056489871 
  146700       146639    265.59877   -1201.2616    1844.8294   0.62781198   0.43338445    1.2203714  -0.21800488    0.2671438   0.32221574  0.062029792 
  146750       146689    259.45799    1461.4373    1842.4855   0.62861062   0.45216825    1.2209597  -0.22848832   0.27301932   0.33034747  0.077289784 
  146800       146739    244.86347    855.08125    1840.1011   0.62942518   0.49857894    1.2241258  -0.22378812   0.28470891   0.36545705  0.072201095 
  146850       146789    275.88378    1274.0366    1838.1282   0.63010074   0.40620811    1.2236703   -0.2311548   0.26964946   0.30436226  0.063351179 
  146900       146839    264.67642   -201.59986     1834.442   0.63136689    0.4386806    1.2229346  -0.22482394   0.25889841   0.33637585  0.068230279 
  146950       146889    272.77129   -2214.2742    1828.7634    0.6333274   0.41505596    1.2232956  -0.23035364   0.26146552   0.31980177  0.064142308 
  147000       146939    268.97048   -61.287387    1821.6823   0.63578923   0.42665234    1.2236299  -0.23039603   0.26976969   0.32900928  0.058269403 
  147050       146989    242.96062   -1041.2791    1814.0283   0.63847185   0.50663144    1.2265401  -0.21449799   0.25877166   0.38897957  0.073378199 
  147100       147039    271.16751    3287.4119     1807.101   0.64091933   0.42291264    1.2264002  -0.22781367   0.24728885   0.34234155  0.061095904 
  147150       147089    259.62129   -7847.7418    1800.9255    0.6431171   0.45675461    1.2260299  -0.22825399   0.25261651   0.36249214  0.069899949 
  147200       147139    265.65629    8323.5028    1795.2776   0.64514033   0.43825104    1.2254085  -0.23204963    0.2451566   0.35011012  0.075033949 
  147250       147189    261.20518   -3879.3921    1792.0822   0.64629064   0.45500162    1.2289701  -0.23082728   0.26200774   0.35456296  0.069258209 
  147300       147239    260.37121    381.12046    1791.1348   0.64663251   0.45576632    1.2272637  -0.23021988   0.26605282   0.35764089    0.0622925 
  147350       147289     275.2734    3895.0118    1792.9802   0.64596695   0.41079579    1.2264494  -0.21859575   0.23286086   0.32957319  0.066957496 
  147400       147339    275.10685   -3790.0603    1797.5258   0.64433342   0.41231267    1.2274727  -0.23127285   0.24825009   0.33241655  0.062918871 
  147450       147389    229.25461    4088.1189    1803.0493   0.64235956   0.55151096    1.2308078  -0.21936641   0.30520279   0.40788981  0.057784771 
  147500       147439    246.47887   -6305.4872    1810.7784   0.63961771   0.50101317    1.2313466  -0.21482874   0.29760361   0.36154601  0.056692292 
  147550       147489    265.33401    1746.2765    1818.3929   0.63693932    0.4416835     1.227886  -0.23491296   0.26482987   0.34999837  0.061768229 
  147600       147539    266.10325    2022.0931    1823.9616    0.6349947    0.4344838    1.2229656  -0.23874691   0.21582529    0.3938012   0.06360422 
  147650       147589    276.39404    621.05141    1828.5375   0.63340565   0.40260728    1.2215814   -0.2448142    0.2293593   0.34980577  0.068256411 
  147700       147639    257.48221    2253.4814    1831.4305   0.63240508   0.45744869    1.2203858  -0.21973561   0.23485604   0.38451813  0.057810139 
  147750       147689    258.83715   -1637.3854    1835.6618   0.63094735   0.45276647    1.2197183  -0.23595388   0.24233567   0.37786525  0.068519424 
  147800       147739    273.94295    368.71865    1837.9957    0.6301462   0.40886988    1.2205812  -0.22985321   0.24098528   0.32856029  0.069177516 
  147850       147789    253.97676    2013.4049    1839.3104   0.62969575   0.46883426    1.2213845  -0.22799863   0.27275513   0.35716856  0.066909201 
  147900       147839    249.46112   -886.37552    1841.4922   0.62894969   0.48670621    1.2258763  -0.22537341   0.28567925   0.36098779  0.065412578 
  147950       147889    258.21345   -2768.6539    1843.7244   0.62818825   0.46318766    1.2282915  -0.23569958   0.26075741   0.37299283  0.065136994 
  148000       147939     246.9718    3745.4907    1845.1681   0.62769672   0.49590595       1.2277  -0.19728066   0.26990017   0.35442397   0.06886246 
  148050       147989    267.38888   -6011.9558    1847.8536   0.62678449   0.43611577     1.228407  -0.24675973   0.27174233   0.35116704  0.059966126 
  148100       148039    256.02145    3361.5574    1846.3037   0.62731064   0.46896297    1.2275717  -0.22011388   0.22688281   0.38765803  0.074536012 
  148150       148089    255.96486    -2982.828     1844.194   0.62802829    0.4710245    1.2294656   -0.2257497   0.23532625   0.38989061  0.071557337 
  148200       148139    265.40929   -1677.5334    1840.8666   0.62916345   0.44466356    1.2310891  -0.22665882   0.24288481   0.36891114  0.059526435 
  148250       148189    265.13399    2641.8677    1837.1254   0.63044469   0.44463801    1.2302478  -0.22333946   0.23813014   0.35499365  0.074853675 
  148300       148239    242.54619   -2642.6627     1832.948   0.63188152   0.51520093    1.2338816  -0.21221334   0.27087783   0.38977703  0.066759408 
  148350       148289    257.97188    8146.1265    1831.9907   0.63221169   0.47273772    1.2371257  -0.20072604   0.25203063   0.36377478  0.057658347 
  148400       148339    260.25084   -5919.9717    1835.9511   0.63084792   0.46871144    1.2398522  -0.22186108   0.28861061   0.32226868   0.07969324 
  148450       148389    249.45772    3545.8957    1840.3688   0.62933364   0.50556342    1.2447234  -0.18485329   0.27220454   0.34748802  0.070724149 
  148500       148439    251.48909    587.94097    1851.4327   0.62557281   0.50381229    1.2489913  -0.21403235   0.25715644   0.39584467  0.064843535 
  148550       148489    231.66505    92.200271    1862.8247   0.62174717   0.56383804    1.2502771  -0.19727925   0.24415967   0.43360579   0.08335183 
  148600       148539    251.39812     2037.558    1873.4379    0.6182249   0.50868179    1.2535913  -0.20420793   0.24440163   0.40587052  0.062617571 
  148650       148589    255.19509   -2323.0711    1882.0892   0.61538315   0.50079257    1.2569528  -0.23639838    0.2716405   0.38701731  0.078533137 
  148700       148639    256.31559    231.40715    1882.0983   0.61538016   0.49622617    1.2557065  -0.22489468   0.24908552    0.4123676  0.059667733 
  148750       148689    256.13176    2523.9907    1876.3707   0.61725862   0.49321369    1.2521493  -0.20989957    0.2465473   0.38784949  0.068716476 
  148800       148739    241.10229   -1565.1907    1870.7056   0.61912788    0.5413494    1.2557517  -0.20043871   0.29070976   0.38781258  0.063265766 
  148850       148789    244.45511    1634.9559     1866.858   0.62040389   0.53174748    1.2560844  -0.21591258   0.26918849   0.40217753  0.076294038 
  148900       148839    246.78503    2463.2302    1863.8808   0.62139486   0.52364807    1.2548887  -0.20596049   0.24984271   0.41007431  0.069691541 
  148950       148889    273.63539   -808.46494    1860.1465   0.62264234   0.44320703    1.2540071  -0.21011181   0.22204866   0.35988472  0.071385455 
  149000       148939    273.87639   -195.46047    1855.9157   0.62406174   0.44030033    1.2518145  -0.22866718   0.23326942   0.37139041  0.064307677 
  149050       148989    268.69283   -1662.3592    1849.5066   0.62622431    0.4538244    1.2499793  -0.22739374   0.22527578   0.39285938  0.063082981 
  149100       149039    277.20923   -390.06839    1840.3882   0.62932699   0.42501561    1.2464052  -0.21974274   0.22084671   0.36156792  0.062343721 
  149150       149089    257.04448   -15.864869    1832.4993   0.63203624   0.48117942    1.2428195  -0.23343619   0.26512756   0.36652238  0.082965662 
  149200       149139    262.56898    4260.0939    1824.3881   0.63484625   0.46632376    1.2443333  -0.22774441   0.29376262   0.33173878   0.06856677 
  149250       149189    238.12151   -4753.0976    1816.7889   0.63750166    0.5366404    1.2422104  -0.22735676   0.29084945   0.41470053   0.05844718 
  149300       149239    250.45807   -2096.5321    1808.8318   0.64030607   0.49557031    1.2376944  -0.23528087   0.26644593   0.40089769  0.063507558 
  149350       149289    275.67811   -1467.5906     1801.416   0.64294199    0.4180049    1.2348576   -0.2267917   0.21884126   0.36024182   0.06571352 
  149400       149339    254.24932    1942.6076    1795.5846   0.64503001   0.47801947    1.2313773  -0.23474639   0.21415754   0.41972575  0.078882566 
  149450       149389    267.43026   -459.32198    1789.7111   0.64714688   0.43831155    1.2307254  -0.22977122   0.23526964   0.37024692  0.062566213 
  149500       149439    253.65841    34.617722     1787.497   0.64794848   0.47751461    1.2291215  -0.22669072   0.23818238   0.41334469   0.05267826 
  149550       149489    250.13595    882.42568    1788.0161   0.64776035   0.48350025    1.2246699  -0.24127027   0.23816719   0.41090072  0.075702609 
  149600       149539    266.13182    2789.0149    1788.3309   0.64764634   0.43600746    1.2245739  -0.23253941   0.21158504   0.38635758  0.070604259 
  149650       149589    254.40846    4040.1398    1790.3775   0.64690603   0.47357777    1.2274071   -0.2439718   0.23813746   0.40968806  0.069724059 
  149700       149639    236.23372    -2135.884    1790.4472   0.64688084   0.52946046    1.2294368  -0.23468787   0.28942529   0.40194444  0.072778599 
  149750       149689    234.98908    2161.0736      1791.23   0.64659813    0.5348864    1.2311748  -0.22555233   0.28726308   0.39052475  0.082650916 
  149800       149739    259.10129   -1004.5603    1793.3323   0.64584014   0.46482831    1.2325628  -0.21971249   0.24683625   0.37622243   0.06148212 
  149850       149789    253.05943   -987.19159    1799.0622   0.64378317   0.48204258    1.2318747  -0.22204438   0.24606306    0.3920083  0.066015598 
  149900       149839    252.90274   -1623.8952    1806.6449   0.64108113   0.48093619     1.230304  -0.22119526   0.26844266   0.36754926  0.066139526 
  149950       149889    272.82769   -2435.8055    1812.0007   0.63918628   0.42067799    1.2290848  -0.23358912    0.2538527   0.35267967  0.047734736 
  150000       149939    270.22364    4038.1413    1816.4028   0.63763717   0.42501097    1.2257017  -0.21745987   0.23036601    0.3536841  0.058420728 
  150050       149989    276.89752    804.98197    1822.8511   0.63538154   0.40248277    1.2229487  -0.25067249   0.21951657   0.36131973  0.072318964 
  150100       150039    257.60561    2196.1416    1825.9742   0.63429481   0.46135129     1.224654  -0.22986224    0.2459948   0.37557211  0.069646618 
  150150       150089    261.51634    1302.4284    1828.3784   0.63346077   0.45047912    1.2253696  -0.24150642   0.24010149   0.39364414  0.058239898 
  150200       150139    250.76527    1727.4934    1830.3051   0.63279393   0.48385652    1.2268909  -0.22115027   0.25161365   0.38179255  0.071600593 
  150250       150189    267.54824   -5104.2697    1833.2066   0.63179237   0.43146836    1.2242318  -0.24223315   0.24574653   0.34881345  0.079141536 
  150300       150239    263.46192    494.00205    1832.8371   0.63191975   0.44263281    1.2232882   -0.2201996   0.25239329   0.34565578  0.064783335 
  150350       150289    264.09449   -2495.9539    1832.6904   0.63197034    0.4407117    1.2232414  -0.20827922   0.26053991   0.32665503  0.061795979 
  150400       150339    256.57187   -515.46984    1834.2049   0.63144852   0.46301522    1.2232549  -0.19538999   0.23741189   0.36317856  0.057814757 
  150450       150389    268.94138    14.601137    1838.1304   0.63010002   0.42681241    1.2237038  -0.23884194   0.24677017   0.35673859  0.062145584 
  150500       150439    266.65508   -1246.2451    1840.5826   0.62926052   0.43176169    1.2218786  -0.22301708   0.22979272   0.35667323  0.068312834 
  150550       150489    257.85852    5379.2553    1841.5016    0.6289465   0.45832989     1.222382  -0.22167757   0.24814807   0.37056268  0.061296715 
  150600       150539    238.88795     2251.315    1841.2379   0.62903658   0.51648767    1.2243287   -0.2215521   0.25769433   0.40935154  0.070993891 
  150650       150589    257.47293    6765.1248    1839.9257    0.6294852   0.46070391    1.2236135  -0.24106951   0.24882448   0.38698993  0.065959004 
  150700       150639    254.83672   -1675.6164    1836.4547   0.63067494   0.46651689    1.2216152  -0.21372379   0.23555592   0.36645682  0.078227951 
  150750       150689    253.45018   -1527.1941    1836.0626   0.63080963   0.47370956    1.2246995  -0.22531726   0.24013737   0.37971952  0.079169928 
  150800       150739    251.85532    4782.9049    1835.2405    0.6310922   0.48222181     1.228486   -0.2153107   0.22220931   0.39527001  0.080053193 
  150850       150789    250.87935   -522.17309    1836.3265   0.63071897   0.48622163     1.229594  -0.21103851    0.2234836     0.409561  0.064215541 
  150900       150839    237.81468    829.85801    1840.6234   0.62924658   0.52735665    1.2320175  -0.21305212   0.26847103   0.39446742  0.077470316 
  150950       150889    255.84124   -756.50196    1845.0576    0.6277343   0.47480235    1.2328771  -0.20824922   0.25180968   0.36544502  0.065796869 
  151000       150939    254.24879   -5317.2765     1848.982   0.62640196   0.47885595    1.2322122  -0.23039884   0.25458632      0.37201  0.082658466 
  151050       150989    266.19669    7930.9588    1847.7898   0.62680614   0.44318834     1.231947  -0.22769029   0.24993457   0.33170461  0.089239445 
  151100       151039    257.26033    -5367.006    1844.4634   0.62793654   0.47074394    1.2330236  -0.22089029   0.26806217   0.35031282  0.073259238 
  151150       151089    259.46794    9053.8803     1838.411   0.63000384   0.45889347    1.2277144  -0.23299657   0.25391757   0.35873812  0.079234348 
  151200       151139    257.30039   -7973.3871    1831.5382   0.63236789   0.46401598    1.2264143  -0.22491794   0.23860345   0.37101722   0.07931325 
  151250       151189    275.66174    4309.7598    1824.9941   0.63463546   0.40967465    1.2264789  -0.24996651   0.25044766   0.32644902  0.082744475 
  151300       151239     259.0728   -4070.8225    1816.4635   0.63761587    0.4586107    1.2262608  -0.22295168   0.28806551   0.31897635  0.074520525 
  151350       151289    262.26236    1537.6085    1810.1845   0.63982758   0.44944262    1.2265436  -0.23107291   0.24810339   0.35986719  0.072544953 
  151400       151339    272.89334   -2517.2237    1806.0783   0.64128227   0.41560903    1.2242103  -0.23972653   0.24338613   0.32280624  0.089143186 
  151450       151389    270.11944   -2522.1732    1800.8808   0.64313306   0.42254334    1.2229254  -0.22680422    0.2697151   0.30035018  0.079282281 
  151500       151439    267.00993    405.60813    1798.3218   0.64404823    0.4321129    1.2232813  -0.22110918   0.25519559   0.32326379  0.074762698 
  151550       151489    267.43848    105.86313    1797.8367   0.64422202   0.43257563    1.2250138  -0.23580057    0.2531894   0.34260833  0.072578474 
  151600       151539    263.15773     4109.302    1798.3269   0.64404639   0.44591438    1.2256684  -0.23390538   0.25423227   0.34427503   0.08131247 
  151650       151589    262.39173    994.74107    1799.2937   0.64370035   0.44516186    1.2226462  -0.22962007   0.25803522   0.33990343  0.076843281 
  151700       151639    243.11405    13.965029    1800.8158   0.64315628   0.50250493    1.2228682  -0.22586756   0.27614298   0.37016431  0.082065203 
  151750       151689    283.15307   -936.10782    1803.4989   0.64219943   0.38121843      1.22022  -0.23257137   0.24259716   0.30234266  0.068849982 
  151800       151739    274.17679    419.30067    1808.8824   0.64028817    0.4063981    1.2188023  -0.24346186   0.23689578   0.34667419  0.066289985 
  151850       151789    268.16976   -4600.7871     1812.125   0.63914244    0.4197408    1.2143458  -0.24515118   0.25804041   0.32372339  0.083128181 
  151900       151839    269.24627    6191.6091    1810.9954   0.63954109   0.41294136    1.2107361  -0.22196914   0.21402218    0.3509977  0.069890613 
  151950       151889    256.27189   -10171.407    1809.8984   0.63992874   0.45298542    1.2123362  -0.23133613    0.2484641   0.34972957  0.086127875 
  152000       151939    252.55931    4130.2292    1806.8846   0.64099609   0.46632195    1.2146721  -0.20402238   0.23475407   0.36327728  0.072312979 
  152050       151989    254.75865    2524.6362    1808.3856   0.64046404   0.46374792    1.2186149  -0.22446502   0.24394795   0.37994856   0.06431644 
  152100       152039    257.16386   -331.42421    1812.0127   0.63918205   0.45724614    1.2192399  -0.23140252   0.25115141   0.37325549  0.064241755 
  152150       152089    251.80359    9195.0686    1817.0671   0.63740407   0.47109894    1.2172099  -0.20463266   0.22601866   0.37694045  0.072772497 
  152200       152139    260.60635   -5103.9531    1825.0887   0.63460256   0.44272509    1.2149192  -0.23690175   0.23170902   0.37711371  0.070804112 
  152250       152189    267.64753    3862.8855    1832.2903   0.63210832    0.4219566    1.2150142  -0.22907598   0.22188833   0.35401721  0.075127038 
  152300       152239    270.87734    2807.4627    1840.1973   0.62939227   0.41176685    1.2143946  -0.23247636   0.20446159   0.36610898   0.07367264 
  152350       152289    257.33134   -4933.2826    1847.8975   0.62676961   0.45315771    1.2156477   -0.2207433   0.23151544     0.361522  0.080863567 
  152400       152339    257.49425    2935.5989    1853.1582   0.62499035   0.45707128     1.220044  -0.21598566   0.23296677    0.3650868  0.075003363 
  152450       152389     247.0437   -3064.5817    1857.5962   0.62349716   0.49264069    1.2246477  -0.21614836   0.26443979   0.37153053  0.072818726 
  152500       152439    278.79371    2623.4063    1858.8198   0.62308674    0.3986254    1.2247099   -0.2136434   0.22899324   0.32582515  0.057450398 
  152550       152489    242.38336     2880.205     1860.629   0.62248089   0.50721478    1.2254129  -0.20680923   0.26710645   0.36399644  0.082921117 
  152600       152539    257.24904   -2082.2013    1864.4057   0.62121992   0.46802591    1.2302721  -0.21468684   0.29817976   0.31626608  0.068266906 
  152650       152589    264.29729   -676.88629    1867.2333   0.62027919   0.44811689    1.2312475   -0.2217489   0.27190179   0.32269837   0.07526562 
  152700       152639    254.22854   -230.12137    1868.4241   0.61988387   0.47839408    1.2316903  -0.20477908   0.26137565   0.34434034  0.077457173 
  152750       152689    279.05871    2851.8616    1867.3088   0.62025413   0.40527472    1.2321444   -0.2205586   0.25485621   0.29430666  0.076670452 
  152800       152739    258.39301    1886.2542    1863.5193   0.62151543   0.46520766    1.2308435  -0.17463293   0.25537705   0.31079255  0.073670992 
  152850       152789     263.0974   -5404.7249    1861.6481   0.62214012   0.45372211    1.2332974  -0.21516085   0.24423556    0.3407725  0.083874901 
  152900       152839    271.90863   -295.66404    1856.6923   0.62380072   0.43245946     1.238143  -0.19279562   0.23291287   0.31476937   0.07757284 
  152950       152889    273.12413    -3619.641    1853.3043   0.62494109   0.43474404    1.2440292  -0.22058506   0.23775233   0.33865809  0.078918684 
  153000       152939    277.22046    3027.0247    1845.6233   0.62754192   0.42375607    1.2451789  -0.22639323    0.2562727   0.30731694   0.08655966 
  153050       152989    259.25605    1449.8272    1834.5847    0.6313178   0.47595302    1.2441461  -0.22642541   0.27175884    0.3389064    0.0917132 
  153100       153039    261.70313   -4614.4806    1822.1314   0.63563253   0.46742923    1.2428732  -0.21993839   0.27248116   0.34997865  0.064907807 
  153150       153089    282.85716    2784.3583    1807.8404   0.64065719   0.40159866    1.2397234  -0.24506149   0.25641364   0.31434212   0.07590438 
  153200       153139    255.56985   -4466.5933    1792.5976   0.64610483   0.47710425    1.2343749  -0.23482079   0.27465006   0.35833249  0.078942485 
  153250       153189    261.89423    2324.2882    1776.0866   0.65211121   0.45707288    1.2330831  -0.22805144   0.30855234   0.29937312  0.077198855 
  153300       153239    263.10979   -2141.6954    1764.2977   0.65646855   0.45096158    1.2305735  -0.23944441   0.28672964   0.33485987  0.068816485 
  153350       153289    250.80095   -3330.9103    1753.6531   0.66045331   0.48056596     1.223706  -0.24665739   0.28212406   0.35075805   0.09434124 
  153400       153339    260.61037    5637.6033    1744.9418    0.6637505   0.44823677    1.2204428  -0.20727943   0.23010483   0.35512832  0.070283058 
  153450       153389    277.54607   -2374.2325    1745.2137   0.66364708   0.39423741    1.2166251  -0.24408623   0.21729579   0.36260907   0.05841878 
  153500       153439    283.65042    5368.2837    1747.5806   0.66274825   0.37127363    1.2117489  -0.24549006   0.21491643   0.33143882  0.070408437 
  153550       153489     266.0539    2017.4057    1755.3803   0.65980345   0.42455374    1.2128893  -0.22193887   0.24834328   0.33724422  0.060905113 
  153600       153539    264.23606    -934.3771    1769.8161   0.65442165   0.42838945    1.2113386  -0.25041825   0.25789298   0.35987275  0.061041974 
  153650       153589     255.5762    4703.6276     1783.907   0.64925243   0.45260773    1.2098972  -0.22701965     0.285304    0.3385473  0.055776083 
  153700       153639    261.08551   -2889.3816    1797.7902   0.64423867   0.43343966    1.2070536  -0.22797498   0.28999917   0.31334778  0.058067678 
  153750       153689    248.58751    6418.5174    1809.0186   0.64023995   0.46797317    1.2045546  -0.22657509    0.2926023   0.32010362  0.081842328 
  153800       153739    251.54383    -4672.254    1817.7878   0.63715134   0.46199623    1.2073375  -0.20023564   0.26283511   0.31601756  0.083379206 
  153850       153789    259.39335   -318.13536    1824.8279   0.63469326   0.44449917    1.2130991  -0.23642133   0.26032428   0.35355456  0.067041673 
  153900       153839    263.97845    3738.2472    1828.0471   0.63357558   0.43232519    1.2145111  -0.21834407   0.25913663   0.33626576  0.055266877 
  153950       153889    233.39849   -3270.0765    1829.9482   0.63291734   0.52303995    1.2146153  -0.22462377   0.25622925   0.42130415  0.070130322 
  154000       153939    242.17324    7450.3713     1827.809    0.6336581   0.49844575    1.2160213  -0.19787475   0.24713861   0.37771496  0.071466928 
  154050       153989    255.34378   -3465.3193    1827.4146   0.63379487   0.46273613    1.2193369  -0.20964451   0.26334607   0.33539446  0.073640127 
  154100       154039    244.86481     2192.077    1827.4101   0.63379642   0.49623397    1.2217848  -0.22700234   0.27298303   0.36741921  0.082834064 
  154150       154089    277.31269    2935.0793    1825.0468   0.63461715   0.39765923    1.2193553  -0.21974682   0.21226147   0.35664695  0.048497633 
  154200       154139    250.32664    -4298.798    1824.2118   0.63490761   0.47447175    1.2162064  -0.22552913   0.26445993   0.35899221  0.076548739 
  154250       154189    273.23287    3702.7858    1820.7653   0.63610943   0.40607035    1.2156777  -0.24225467   0.20935524   0.35917402   0.07979576 
  154300       154239    273.66258   -1723.8083    1816.2632    0.6376862   0.40449329    1.2153739  -0.22045039   0.24974638   0.31010123   0.06509607 
  154350       154289    255.86633   -1966.2187    1812.6144   0.63896987   0.46103709    1.2191862  -0.24324503   0.23383227   0.39610707  0.074342781 
  154400       154339    264.89514    3501.1565    1804.9758   0.64167397   0.43178622    1.2166883  -0.22551334   0.25412521   0.32736978  0.075804573 
  154450       154389    237.71735   -7218.3041    1797.6775   0.64427906   0.51339345    1.2177659  -0.22339507   0.29413187   0.37486796   0.06778869 
  154500       154439    262.21534    7718.8391    1789.7351   0.64713822   0.44185906    1.2188207  -0.23309444   0.27142223   0.32335435  0.080176915 
  154550       154489    269.35634   -3377.7855    1782.7552   0.64967191   0.42091196    1.2190329  -0.24453988    0.2477549   0.35015614    0.0675408 
  154600       154539    248.35032    729.14295    1775.7937   0.65221877   0.48112144    1.2170001   -0.2378638   0.27052803    0.3588159  0.089641312 
  154650       154589    247.78275    3008.5872    1769.8174   0.65442118   0.48407741    1.2182743  -0.22146025   0.26248755   0.33765667   0.10539343 
  154700       154639    271.44588   -2702.3036    1768.0835   0.65506295   0.41632535    1.2206377  -0.23930187   0.22790763   0.35415927  0.073560319 
  154750       154689    270.33984    1617.7714    1766.0214   0.65582781   0.41837094     1.219406  -0.23059325   0.22159422   0.35876274   0.06860723 
  154800       154739    264.34312   -1259.9695    1764.4474   0.65641287   0.43387095    1.2171374  -0.25792984   0.25482129   0.36035365   0.07662586 
  154850       154789    261.01662    -3377.847    1760.7145   0.65780453     0.439129    1.2125388  -0.23894937   0.26010339   0.32833749  0.089637495 
  154900       154839    261.89849     1910.403    1756.0043   0.65956897   0.43544584    1.2114687  -0.22787375   0.24063564   0.34210354  0.080580406 
  154950       154889    271.81915   -2741.9992    1752.2845   0.66096912    0.4056617    1.2110801  -0.24200152   0.25579231   0.31446492  0.077405988 
  155000       154939    262.41168   -1042.5125    1747.1994   0.66289286   0.43346362     1.211007  -0.25497747    0.2550218   0.34066502  0.092754261 
  155050       154989    271.34169    3966.0624    1740.6058   0.66540396   0.40678311    1.2107867  -0.21718528   0.23489066   0.30736797  0.081709748 
  155100       155039    265.71277   -8116.8073    1736.1197   0.66712333   0.42600391    1.2133287  -0.25277145   0.28566806   0.30309858  0.090008721 
  155150       155089    254.17794    6179.7013    1730.1463    0.6694266   0.46230756    1.2154538  -0.22481774   0.24493873   0.37275336  0.069433213 
  155200       155139     268.5267   -6316.9262      1726.99   0.67065008   0.41712549    1.2127881  -0.25375934   0.26367542   0.30059732   0.10661209 
  155250       155189    262.05485    2374.3852     1722.274   0.67248649   0.43624016    1.2127263  -0.24340977   0.24867524   0.33129054  0.099684159 
  155300       155239    258.62018   -1360.3212    1718.1961   0.67408253   0.44585495    1.2121639   -0.2389043    0.2137517   0.34951507   0.12149248 
  155350       155289    275.84942    2505.8658    1715.1597    0.6752759   0.39671584    1.2140762  -0.28411088   0.26247834   0.34121145  0.077136937 
  155400       155339    244.60403    930.29267    1710.3787   0.67716346   0.48724702    1.2120252  -0.24039041   0.26820168   0.37161626  0.087819497 
  155450       155389    264.63724      2928.94    1710.4749   0.67712537   0.42435406     1.208492  -0.24636987   0.26734497   0.32030318  0.083075783 
  155500       155439    270.74112   -2446.0214    1712.9569   0.67614427   0.40101477    1.2032389  -0.27160418   0.24097391   0.34749383    0.0841512 
  155550       155489    259.79257    1695.8104     1713.278   0.67601753   0.42753223     1.197315  -0.24929118   0.22475713   0.36778914  0.084277135 
  155600       155539    257.71819   -1118.7107    1713.2696   0.67602086   0.43326159    1.1968979  -0.25999289   0.25577492   0.35506441  0.082415152 
  155650       155589    250.06156   -277.06539    1712.4716   0.67633589   0.45159832    1.1925475  -0.23875474   0.25287937   0.34499449  0.092479197 
  155700       155639    267.43613    -1427.703    1712.3908   0.67636777   0.39617669    1.1886079  -0.23985069   0.22014432   0.34332859   0.07255447 
  155750       155689    266.11221    623.37936    1713.4575    0.6759467   0.40196195    1.1904703  -0.24838013   0.21724905   0.35235356  0.080739475 
  155800       155739    245.05895    792.33592    1716.8081   0.67462751   0.46837826    1.1945044  -0.25093195   0.23172801   0.37095481   0.11662738 
  155850       155789    253.63186   -3819.5368    1718.1159   0.67411399   0.44584283    1.1973711  -0.26466725   0.25999834   0.33688158   0.11363017 
  155900       155839    257.21673    6185.4406    1715.0691   0.67531157   0.43609133    1.1982418  -0.23980345   0.21523783   0.34615881   0.11449814 
  155950       155889    249.90617    1152.7516    1713.1114   0.67608326   0.46167749    1.2021663  -0.25608543   0.24721066   0.37578396  0.094768304 
  156000       155939    273.58716    1390.7359    1711.6635   0.67665517    0.3947358    1.2053929  -0.25932429   0.24602995   0.32950389  0.078526252 
  156050       155989    248.21005    966.27962    1709.8301   0.67738074    0.4667247    1.2021877  -0.24774678   0.25711771   0.36309142  0.094262346 
  156100       156039    253.84178   -3733.9878    1709.7998   0.67739275   0.44884198    1.2009922  -0.24881432   0.23362552   0.36634676  0.097684019 
  156150       156089    268.93376    71.047382    1710.1786   0.67724268   0.40362041    1.2004892  -0.24489873   0.23988444   0.32804637  0.080588334 
  156200       156139    255.46733   -191.53839    1712.9981     0.676128   0.44200777    1.1989746  -0.25847871   0.24353001   0.36696643  0.089990038 
  156250       156189    265.97909   -2443.6359    1715.6259   0.67509239   0.40802298    1.1961369  -0.25343959   0.25492117   0.33822004  0.068321367 
  156300       156239    279.37959    3115.6815    1719.2247   0.67367922   0.36557155     1.193392  -0.24473509   0.23533958    0.2950436  0.079923454 
  156350       156289    259.73168   -7651.6433    1723.3235   0.67207695   0.42183098    1.1914334  -0.26325889    0.2451151   0.34662114   0.09335363 
  156400       156339    263.84486    4456.1133      1725.33   0.67129532   0.41057831    1.1923684  -0.23954369   0.21745575   0.34450155  0.088164693 
  156450       156389    258.97247      2704.52    1729.7821   0.66956756    0.4285078    1.1958606  -0.25956255   0.21456404   0.37722866  0.096277644 
  156500       156439    270.18993    148.63272    1735.2081   0.66747383   0.39865457    1.1992455    -0.262188    0.2224615   0.36073202  0.077649047 
  156550       156489    265.82982    484.25105    1739.9646   0.66564914   0.41333272    1.2010043   -0.2606051   0.24654992    0.3510283  0.076359595 
  156600       156539    256.22914    617.39677    1744.2719   0.66400539   0.43979975    1.1990239  -0.25639982    0.2489705   0.36307322   0.08415585 
  156650       156589    246.98332    2753.4235    1746.6324   0.66310802   0.46505353    1.1968817  -0.22031326   0.22841425   0.36856882  0.088383713 
  156700       156639    248.71088   -549.98714    1750.8307   0.66151799   0.46367167    1.2006187  -0.23266437   0.25001127   0.36168222  0.084642551 
  156750       156689    265.79887    1197.8465    1755.8736   0.65961808   0.41641873    1.2039986  -0.25329165   0.25481538   0.35995196   0.05494304 
  156800       156739    246.92578   -4315.9322    1759.2071   0.65836818   0.47059096    1.2022486   -0.2305923    0.2574166    0.3685731  0.075193559 
  156850       156789    244.76109    1712.7234    1760.4649   0.65789779   0.47365148     1.198895   -0.2297192   0.23529947    0.3874242  0.080647008 
  156900       156839    259.56284   -5492.2881    1761.4017   0.65754791   0.43394399    1.2030461  -0.24658871   0.22769976   0.37982067  0.073012275 
  156950       156889    259.16588    5395.8852    1762.4309    0.6571639   0.43666513     1.204591  -0.24082526   0.26785414    0.3509392  0.058697048 
  157000       156939    251.61287   -1208.1395     1762.202   0.65724927   0.45893483    1.2044807  -0.24106255   0.24465643   0.36413166  0.091209293 
  157050       156989    266.85775   -1280.2328    1761.0402   0.65768288   0.41139957     1.202117  -0.25808031   0.24038755   0.35235435  0.076737986 
  157100       157039    260.74942      1528.59    1757.4878   0.65901225   0.42811162    1.2007297  -0.23996581   0.23688077   0.35222672  0.078969935 
  157150       157089    271.78206   -1104.6027    1754.2204   0.66023973   0.39671158    1.2020201   -0.2500649   0.24299145   0.32780794  0.075977089 
  157200       157139    266.82423    1038.5102    1750.7246   0.66155805   0.40957719    1.2001953  -0.24680757   0.26871261   0.29819029  0.089481867 
  157250       157189    269.94479   -4583.1121    1746.7226   0.66307381   0.39863289    1.1984974  -0.24993937   0.24186134    0.3301029  0.076608013 
  157300       157239    273.98914    1944.8378    1741.9627   0.66488561   0.38770508    1.1995533  -0.22740839   0.19419689   0.33937497  0.081541625 
  157350       157289    281.10652   -1793.8522    1740.6498   0.66538713   0.37179296    1.2047305  -0.24978979   0.24562243   0.29496138  0.080998941 
  157400       157339    271.55664    999.19941    1740.0243    0.6656263   0.40047025    1.2051108  -0.25700291   0.22791223   0.35357084   0.07599009 
  157450       157389    272.92123    778.49078    1740.1114   0.66559302   0.39482789    1.2035118  -0.23964025   0.22817068   0.33743045     0.068867 
  157500       157439    246.82412   -2435.2949    1741.2594   0.66515417   0.47111992    1.2024764  -0.23269619   0.26705565   0.35800854  0.078751919 
  157550       157489    263.07615    2179.8956    1742.4435   0.66470217   0.42511716    1.2046294  -0.24680888    0.2548731   0.33282135  0.084231586 
  157600       157539     264.0631    3469.3061    1745.5866    0.6635053   0.42159767    1.2040344  -0.26248603   0.25599981   0.34985949    0.0782244 
  157650       157589    256.74706   -4271.4903    1748.5438   0.66238316   0.44358119      1.20434  -0.22525618   0.24575307   0.35514556   0.06793874 
  157700       157639     254.9402    1213.9432    1754.9054   0.65998201   0.44778046    1.2031854  -0.23590999   0.27784509   0.32509805  0.080747304 
  157750       157689    261.56662   -4618.3589    1761.9149   0.65735637   0.42930905    1.2043485  -0.25971919   0.27250759   0.35318323  0.063337431 
  157800       157739    285.44474    1882.4612    1765.9835    0.6558419   0.35337972    1.1991717  -0.25421355   0.22107212   0.32588847  0.060632674 
  157850       157789    279.40498   -1182.2747    1766.3777   0.65569552   0.36586339    1.1937591  -0.24110912   0.20816671   0.31583414   0.08297166 
  157900       157839    261.34963    568.23648    1764.8647   0.65625766   0.42137363    1.1957701  -0.23841622   0.23578745   0.34144863  0.082553759 
  157950       157889    265.69764   -16.150898    1761.6294   0.65746291   0.41109352    1.1983735  -0.24197022    0.2416325   0.34271825  0.068712988 
  158000       157939    271.47787    308.13667    1758.5405   0.65861774   0.39448238    1.1988895  -0.24453845   0.22086253   0.35168255  0.066475752 
  158050       157989    274.67706    371.01931     1756.961   0.65920985   0.38794967    1.2018362  -0.23286297   0.19789589   0.35038685    0.0725299 
  158100       158039    256.61892   -2571.3855    1756.7608   0.65928495   0.44690208    1.2072812  -0.26075625   0.27362723   0.36540879  0.068622315 
  158150       158089    240.27949    459.23647    1755.9801   0.65957806   0.49549207    1.2074563  -0.21156634   0.26475167   0.37232428   0.06998247 
  158200       158139    249.73467   -676.13154    1758.5973   0.65859647   0.46816248    1.2081431  -0.23335839   0.29057813   0.34155858  0.069384161 
  158250       158189    244.91855   -2464.7176    1762.7413   0.65704818   0.48268811    1.2083982   -0.2350742     0.266047   0.38316426   0.06855105 
  158300       158239      246.072    3757.8399    1770.3494    0.6542245   0.47940707    1.2085349  -0.20391159   0.25778601   0.35475413  0.070778519 
  158350       158289    260.03247    2313.0908    1781.2548   0.65021916   0.44052277    1.2110165  -0.24227081   0.24361941    0.3652296  0.073944575 
  158400       158339    253.45388   -1078.0805    1790.2027   0.64696918   0.46326439    1.2142653  -0.24261526   0.25903346   0.39181297  0.055033223 
  158450       158389    256.16645    3604.1703    1797.9653   0.64417594   0.45326617    1.2123046  -0.23582474   0.24834158   0.36389967  0.076849654 
  158500       158439    267.94204   -738.74988    1803.0996   0.64234166   0.41919474     1.213125   -0.2150259   0.19671902   0.38098016  0.056521455 
  158550       158489     266.2486    2272.2084    1808.6438   0.64037263   0.42462262    1.2135351  -0.23230693   0.19321063   0.40254215  0.061176756 
  158600       158539    279.48276   -783.83079    1811.0935   0.63950644   0.38844335    1.2165695  -0.22366233   0.21705635   0.33244676  0.062602579 
  158650       158589    251.88852   -3952.1397    1812.6333    0.6389632   0.47285091    1.2192135  -0.23687355   0.26969446   0.38959774   0.05043226 
  158700       158639    252.97592   -613.95709    1811.5109   0.63935909   0.47045721    1.2200418  -0.24179888   0.28449836   0.35182709  0.075930646 
  158750       158689    259.86796   -3273.3318    1808.8804   0.64028886   0.45042154    1.2204278  -0.22677544    0.2568656   0.35108282  0.069248564 
  158800       158739     254.3447    4559.8484    1806.1081   0.64127168   0.46773094    1.2213714  -0.23403357   0.25113745   0.37502358  0.075603479 
  158850       158789    249.09247    1088.0304    1803.9332   0.64204482   0.48595354    1.2240313  -0.21642442   0.25909322   0.38217697  0.061107776 
  158900       158839    262.52131   -1925.4897    1803.2988   0.64227069   0.44688344    1.2247517  -0.24176127   0.26959572     0.347249  0.071799997 
  158950       158889    260.50193    1842.5333    1801.9455   0.64275304   0.45304143    1.2249261  -0.23302543   0.26703631   0.35809988   0.06093067 
  159000       158939    266.03224     5226.804    1799.9455   0.64346724   0.43661964     1.224891  -0.22812736   0.22747104   0.37724294  0.060033015 
  159050       158989    274.55688   -5405.5044    1799.3024   0.64369723   0.40859073    1.2221212  -0.24686795   0.19872225   0.39596899  0.060767439 
  159100       159039    269.42331    578.67493    1794.4766   0.64542829   0.41987345    1.2181928  -0.23049278   0.21031681   0.37715266  0.062896753 
  159150       159089    258.19349   -2591.8779    1790.3567   0.64691353    0.4513236    1.2163682  -0.24249759   0.22667812   0.39487779  0.072265277 
  159200       159139    253.41462    1269.4326    1785.2008    0.6487819   0.46668029    1.2175648   -0.2316834   0.22928891   0.39514795  0.073926831 
  159250       159189    267.22963    1612.0026    1783.2721   0.64948359   0.42824897    1.2200683  -0.24298949   0.23422253   0.36376382  0.073252115 
  159300       159239      251.506   -166.89187    1784.9929   0.64885746   0.47663287     1.221862  -0.21067823   0.24720716   0.37031064  0.069793298 
  159350       159289    247.86142    2246.7663    1790.6101   0.64682199   0.49093073    1.2253608  -0.24192638   0.26388732   0.39801053  0.070959265 
  159400       159339    242.60896    1190.7904    1796.7515   0.64461111   0.50830091    1.2271675  -0.22511815   0.25577333   0.40429078  0.073354955 
  159450       159389    240.13792    4446.4803    1803.1058   0.64233943   0.51524384    1.2267886  -0.23490451   0.27783439   0.40977026  0.062543697 
  159500       159439    248.45156   -1076.7605    1810.0118   0.63988861   0.48918575    1.2253644  -0.23329747   0.25068355   0.38708148  0.084718191 
  159550       159489    255.74689   -4512.8172    1814.5727   0.63828028   0.46743858    1.2252338  -0.24031644   0.24274004   0.38696699  0.078047989 
  159600       159539     261.3732   -3133.9444    1815.2943   0.63802657   0.45060599    1.2250723  -0.23314062   0.21548458   0.38983944  0.078422585 
  159650       159589    258.18683   -754.63965     1812.076   0.63915971   0.45979035    1.2248153  -0.22374762   0.20985295   0.38937467  0.084310345 
  159700       159639    257.50212   -2505.2858    1808.4036   0.64045769   0.46192193     1.224918  -0.22988094   0.20983842   0.39851894  0.083445506 
  159750       159689    287.31877    2360.1222    1801.8103   0.64280127   0.37158169    1.2229265  -0.23478955   0.17415257   0.35463241  0.077586253 
  159800       159739    277.33297   -3800.0366    1795.2603   0.64514655   0.40093896    1.2226952  -0.23684135   0.19459859   0.36755298  0.075628737 
  159850       159789    260.24788    4609.7368    1789.4823   0.64722964   0.45515567    1.2262876  -0.22257145   0.23518803   0.37781962  0.064719469 
  159900       159839    247.84985   -524.60347    1788.3453   0.64764114   0.49497671    1.2293724  -0.22830545   0.22669779   0.43061861  0.065965754 
  159950       159889     260.9814    5144.7235    1791.2763   0.64658143   0.45607319    1.2293786  -0.22821648   0.24772298   0.36726897  0.069297721 
  160000       159939    244.39965   -188.34063    1796.2659   0.64478538   0.50706433    1.2312369  -0.21580525   0.23983348   0.40793226  0.075103849 
  160050       159989    230.01135    1427.5921    1802.9188   0.64240605   0.55030138    1.2318404  -0.22907771   0.27488649    0.4374785  0.067014093 
  160100       160039    236.12556   -887.77174     1808.383   0.64046496    0.5303812    1.2300371  -0.23617719   0.28474491   0.41021227  0.071601215 
  160150       160089    261.75621    525.49618    1811.0171   0.63953343   0.45000484    1.2256061  -0.22756768   0.23863224   0.36284483  0.076095443 
  160200       160139    259.92887   -2580.0515    1810.5526   0.63969751   0.45082215    1.2210089  -0.24296966   0.20928175   0.41255204  0.071958019 
  160250       160189    267.10015   -40.119615    1804.3812   0.64188542   0.42630616    1.2177418  -0.22441214   0.21616021   0.37029883  0.064259258 
  160300       160239    259.35343    353.68519    1799.0308   0.64379439   0.44809418    1.2165758  -0.23653006   0.17654329   0.43253224  0.075548704 
  160350       160289    253.92409   -1237.3713    1791.9258   0.64634704   0.46591825    1.2183124  -0.21615093   0.22239034   0.38943235  0.070246485 
  160400       160339    267.87474    1173.5618    1789.3173   0.64728933   0.42644667    1.2201775  -0.22485598   0.19803987   0.38588594  0.067376826 
  160450       160389    262.18088   -1781.6861    1789.8015   0.64711419   0.44440364    1.2212632  -0.23624665   0.19892444   0.40325225  0.078473606 
  160500       160439    265.00536    4624.3312    1791.5314   0.64648935   0.43836934     1.223598   -0.2166722   0.21325847   0.38435216  0.057430901 
  160550       160489    241.64311   -196.58716    1798.3385   0.64404224   0.51000794    1.2260127  -0.22472114   0.22721868   0.43517329  0.072337117 
  160600       160539    244.78058    2721.4097    1808.2432   0.64051449   0.50285634    1.2281576  -0.22597142   0.26321155   0.40009466  0.065521555 
  160650       160589    252.99874   -221.13291    1819.8286   0.63643685    0.4775372    1.2271894  -0.22494263   0.26379325    0.3853167  0.053369883 
  160700       160639    254.52158    512.96005    1831.7051    0.6323103   0.47013213    1.2242966  -0.22127811   0.24743821   0.37191698  0.072055053 
  160750       160689    260.03844    609.55515    1840.5549   0.62926998   0.45385125    1.2243626  -0.21720681   0.26151106   0.34654638  0.063000611 
  160800       160739    249.63292    1475.3622    1848.8541   0.62644532   0.48523044    1.2249095   -0.2138286   0.24256801   0.38196288  0.074528145 
  160850       160789      261.819   -1376.0196    1854.7053   0.62446901   0.44841705    1.2242043  -0.20696267   0.21069563   0.38605096  0.058633131 
  160900       160839    260.25504   -2449.6375    1857.1551   0.62364525   0.45259046    1.2237436  -0.21507606   0.17792572    0.4159353  0.073805498 
  160950       160889    253.20031    2265.5345    1857.4934   0.62353167   0.47637087    1.2266204  -0.19871883   0.20259108   0.39570813  0.076790489 
  161000       160939    275.65439   -2764.9129    1856.4962   0.62386661   0.41398387    1.2307663  -0.22821723   0.23432463   0.35069527  0.057181201 
  161050       160989     272.0439    1427.0044    1853.2285   0.62496661   0.42441595    1.2305003  -0.22946612   0.22125613   0.37382934  0.058796596 
  161100       161039    252.35815   -936.00011    1846.7829   0.62714788   0.48065137    1.2284055  -0.23362953   0.24337704   0.39736537  0.073538491 
  161150       161089    253.91178   -3222.8037     1837.199   0.63041943   0.47500615    1.2273638  -0.22990206   0.24514892   0.40987532  0.049883968 
  161200       161139    242.47085    2381.1009    1828.4374   0.63344033   0.50777602    1.2262334  -0.21031191   0.25234661   0.40516154  0.060579777 
  161250       161189    241.09141    17.879817    1821.6372   0.63580497   0.51266007    1.2270301  -0.23380563   0.25626007     0.417402  0.072803634 
  161300       161239    254.52881   -2129.9068    1814.9802   0.63813698   0.47217248    1.2263584  -0.24004912   0.22764628   0.42839473  0.056180593 
  161350       161289    266.00241    3650.6731    1809.4901   0.64007311    0.4365261    1.2247091  -0.21800949    0.2096339   0.37617708  0.068724602 
  161400       161339    260.04682   -832.50452    1807.4359   0.64080059   0.45509606    1.2256322  -0.22999657   0.20523847   0.41435553  0.065498635 
  161450       161389    249.92141    2507.5649    1807.1441   0.64090406   0.48564838    1.2261823  -0.21854557   0.25311644     0.393508  0.057569513 
  161500       161439    251.38213    3143.5871    1809.7445   0.63998315   0.48253662    1.2273988  -0.21133781    0.2192244   0.40691424    0.0677358 
  161550       161489    270.65643   -5511.6386    1812.7161   0.63893402   0.42478439    1.2267576  -0.24668338   0.23591512   0.36363301  0.071919638 
  161600       161539    256.65472    2136.8248    1813.2332   0.63875182   0.46421445    1.2246996  -0.23273442   0.22584029   0.40666996   0.06443862 
  161650       161589    257.17039    271.69054    1814.4931   0.63830829   0.46595154    1.2279647  -0.24027436   0.22494031   0.41725519  0.064030395 
  161700       161639    256.50037   -169.63068    1817.1213   0.63738506    0.4714378    1.2314656  -0.23324721   0.27812537   0.35443968  0.072119957 
  161750       161689    261.62306   -961.13287    1818.4955    0.6369034   0.45674595    1.2319526  -0.23556418   0.24496745   0.34861799  0.098724695 
  161800       161739    270.59607    704.80706    1816.7693   0.63750857   0.42784095    1.2296353  -0.23569447   0.22499673   0.37653447  0.062004215 
  161850       161789    264.53202   -5533.9264    1813.6649   0.63859976   0.44280451    1.2266306  -0.25055397   0.24593182   0.36705079  0.080375878 
  161900       161839    240.74503    6114.2747    1807.0282   0.64094514   0.51335965    1.2267033  -0.22227607   0.23735434   0.43348187  0.064799513 
  161950       161889    265.97609   -2397.4232    1803.4998    0.6421991   0.43473221    1.2228372  -0.25147936   0.22771335   0.38198823  0.076509997 
  162000       161939    243.58293    1435.5975    1798.7428    0.6438975   0.50057869    1.2223313  -0.21739928   0.22603455   0.40717201  0.084771411 
  162050       161989    265.58762    3649.5993    1795.4324   0.64508469   0.43541526    1.2223692  -0.24044081   0.22988221   0.36608861  0.079885245 
  162100       162039    262.57569     -8218.35    1792.4038   0.64617469     0.443611    1.2216404  -0.24858201   0.23831844   0.38145823  0.072416331 
  162150       162089    261.83328    5449.8937    1786.0214    0.6484838   0.44297861    1.2188082  -0.24273117   0.25695422   0.34916841  0.079587161 
  162200       162139    268.01434   -3951.1871    1779.0819    0.6510133   0.42503389    1.2191784  -0.25118302   0.24310445   0.34456779  0.088544676 
  162250       162189    274.91308    4333.5957     1773.873   0.65292498   0.40672295    1.2213089   -0.2276689   0.24743114   0.32196054  0.065000159 
  162300       162239    252.67941   -71.967896    1774.2542   0.65278469   0.47207478    1.2207808  -0.22894355   0.27276639   0.35635801  0.071893923 
  162350       162289    257.19437   -1246.6705    1778.9121   0.65107544   0.45974672    1.2218309  -0.22857754   0.25076523   0.35261494  0.084944087 
  162400       162339    270.29334     2298.711    1787.1654   0.64806871   0.42455985    1.2254572  -0.22925295   0.25722756   0.32340818  0.073177048 
  162450       162389     265.9053    795.76161    1799.5183   0.64361999     0.437152    1.2250473  -0.24125845   0.25761364   0.33432892  0.086467887 
  162500       162439    291.77593   -2879.4657    1809.7145   0.63999375    0.3554347    1.2199864   -0.2295167   0.21493682   0.30257658  0.067437998 
  162550       162489    259.77274    202.17018    1819.3966   0.63658796   0.45093583    1.2206599  -0.19922507   0.26546452   0.33389811  0.050798275 
  162600       162539    250.12617   -2968.7604    1832.0427   0.63219377   0.47831126    1.2194519  -0.20354928   0.25502187   0.33647734  0.090361335 
  162650       162589    265.55111    6902.7047    1845.4548   0.62759919     0.436267    1.2231128  -0.19624048   0.20297264    0.3500137  0.079521147 
  162700       162639    278.18532    37.947473         1861   0.62235678   0.40417221     1.228454  -0.23104065   0.22638635   0.33948731  0.069339194 
  162750       162689    266.52425   -1350.8597    1870.5294   0.61918618   0.43897512    1.2287044  -0.21694623   0.24731165   0.34312281  0.065486891 
  162800       162739    259.36482    2328.2939    1876.2203   0.61730809   0.46188943    1.2304048  -0.20305577   0.25564957   0.33085301   0.07844262 
  162850       162789    272.67479   -4671.1196    1877.6716   0.61683096   0.42180437    1.2297581  -0.23413354   0.24893715   0.34566972   0.06133103 
  162900       162839    257.95449    7805.1762    1872.5397   0.61852145   0.46233015    1.2266666  -0.19991461   0.23993809   0.33927592  0.083030744 
  162950       162889    273.71459   -5253.0523    1866.7394   0.62044332   0.41731533      1.22835  -0.24843583   0.24666056     0.367941  0.051149598 
  163000       162939    255.80569   -687.05739    1855.7281   0.62412482   0.46449822    1.2224676  -0.22957307   0.26189069     0.352262  0.079918588 
  163050       162989    259.79455   -1062.5378    1845.8609   0.62746112    0.4506913      1.22048  -0.20893325   0.26610811   0.32630834  0.067208102 
  163100       163039    256.12774    -1518.192    1840.0862   0.62943027   0.46416184    1.2230855  -0.20354814   0.23413207   0.37670209  0.056875822 
  163150       163089    254.85431    5371.8227    1838.6298   0.62992885    0.4677955    1.2229459  -0.20242768   0.22040984   0.36739739  0.082415948 
  163200       163139    236.43767   -868.32579    1841.4926   0.62894957   0.52621603    1.2267967  -0.21696211   0.29012134   0.36696697  0.086089844 
  163250       163189    249.34356   -2289.2595     1844.318   0.62798606   0.49052809    1.2293498  -0.22364639   0.28338813   0.36766665  0.063119703 
  163300       163239    248.70874    4349.3096    1847.0367   0.62706169   0.49222348    1.2291642  -0.21798358   0.27500816   0.37257235  0.062626555 
  163350       163289    252.08931    4835.3613    1852.5439   0.62519758   0.48037329    1.2273309  -0.20144139   0.23457004   0.38644803  0.060796604 
  163400       163339    250.75893   -2483.5783    1860.2957   0.62259239     0.486059    1.2290746  -0.23072901   0.25406188   0.40420696  0.058519165 
  163450       163389    250.54787     4381.153    1866.9543    0.6203719   0.48544285     1.227833  -0.21790813   0.23102439    0.3990658  0.073260789 
  163500       163439    265.79603   -7406.5919    1870.0537    0.6193437   0.43977527    1.2273468  -0.22548016   0.22685477    0.3578232  0.080577464 
  163550       163489    274.86117    4127.5498    1868.8516   0.61974206   0.41344441    1.2278765   -0.2039655   0.24623481    0.3127168  0.058458297 
  163600       163539    271.38382   -6738.1639    1869.9532   0.61937699   0.42511463    1.2292431  -0.20886385   0.22764245   0.34076068  0.065575344 
  163650       163589    282.91601    703.00353    1870.5121   0.61919193   0.39081062    1.2291097  -0.21507576   0.24558555   0.30472374   0.05557709 
  163700       163639    261.16179   -595.55667    1870.7752   0.61910483   0.45437135    1.2282113  -0.20013928   0.27696614   0.31031704  0.067227448 
  163750       163689    271.20738    965.97236    1871.0951     0.618999    0.4240848    1.2276905  -0.21317733   0.25260725   0.31213709  0.072517795 
  163800       163739    249.86151   -1473.6272    1869.8897     0.619398   0.48790138    1.2282578  -0.20279263   0.26425768    0.3585628  0.067873524 
  163850       163789    259.61931    531.86079    1869.5789     0.619501   0.45930782    1.2285773  -0.22145613   0.24534413   0.37768183  0.057737989 
  163900       163839    267.21875   -76.183785    1865.7293   0.62077923   0.43553591     1.227323  -0.21074714   0.25955601   0.32207521  0.064651839 
  163950       163889    247.37687   -924.02317    1861.5571   0.62217052   0.49568616    1.2286804  -0.20311859    0.2579586   0.36205219  0.078793964 
  164000       163939    259.91856   -1838.5268    1857.6206   0.62348899   0.46028043    1.2304366  -0.22867091   0.25155249   0.37652212   0.06087674 
  164050       163989    257.66598    1936.2238    1850.5047   0.62588655   0.46242188    1.2259035  -0.20282865   0.25510819   0.34721339  0.062928954 
  164100       164039    248.47307   -516.30342     1845.981   0.62742031   0.49148487    1.2277273  -0.19306567   0.24221448   0.37124229   0.07109377 
  164150       164089    268.73766   -121.92089    1844.1134   0.62805573   0.43573894    1.2320267   -0.1966205    0.2705134    0.3033752  0.058470847 
  164200       164139    257.40477    3007.8376     1845.825   0.62747334   0.47346865    1.2361763  -0.19608252   0.24384426   0.34876047  0.076946441 
  164250       164189     258.2758   -5216.0874    1847.9171   0.62676294   0.47022391    1.2355124  -0.22824762   0.24690658   0.36030625  0.091258706 
  164300       164239    265.51564    7184.5649    1844.8999   0.62778798   0.44960752    1.2363482  -0.19818809   0.23473347   0.34281497   0.07024717 
  164350       164289    274.98702    -5060.189      1843.62    0.6282238   0.42071733    1.2355223  -0.23579402   0.22292794   0.36415607   0.06942735 
  164400       164339    268.39807   -1929.8705    1838.2783    0.6300493   0.44043187    1.2357134  -0.20109865    0.2510647   0.32107246  0.069393357 
  164450       164389    255.00779    1432.9093     1834.408   0.63137861   0.48186031    1.2374655  -0.21576525   0.25436753   0.35093452  0.092323516 
  164500       164439    269.53223   -3609.1031    1830.3701   0.63277146   0.43893127    1.2375734  -0.22193305   0.21735069   0.37267346  0.070840166 
  164550       164489    276.12871    1926.4184    1824.1727   0.63492122   0.41700213      1.23519  -0.22458389   0.24824299   0.33061171   0.06273131 
  164600       164539    264.17815    -4329.454    1818.0731   0.63705138   0.45245536     1.235233  -0.21877121   0.25734826   0.32875588  0.085122423 
  164650       164589    255.80015    247.92631    1814.0269   0.63847233   0.47995248    1.2379055  -0.22852614   0.25206535   0.39054259  0.065870683 
  164700       164639    269.79965    3136.9539    1812.5418   0.63899546   0.43413341    1.2335679  -0.23417685   0.21102512   0.38810809  0.069177056 
  164750       164689    266.96817    1369.3219    1814.5842   0.63827623   0.43715991    1.2282045  -0.22936701   0.21720428   0.37970666  0.069615982 
  164800       164739    265.37499    3811.8418    1818.5957   0.63686833   0.43907934    1.2254032  -0.22437526   0.23870643    0.3656104  0.059137769 
  164850       164789    248.60854    1837.7725    1824.2918   0.63487978   0.48751623      1.22416  -0.23655969   0.24090604   0.41658308  0.066586808 
  164900       164839    271.73278   -812.23147    1830.2122   0.63282605   0.41491735    1.2200798  -0.23428311   0.22234633   0.36737859  0.059475549 
  164950       164889    264.21195     1219.993    1835.1566   0.63112104   0.43309807    1.2159758   -0.2171687    0.2084652   0.37745726    0.0643443 
  165000       164939    245.45315   -4471.7471    1842.1252   0.62873358   0.49202224    1.2193164  -0.24287122   0.26506665   0.40357027  0.066256532 
  165050       164989    245.96746    3043.1827    1845.0544   0.62773539   0.48926296    1.2180811  -0.22175478   0.25519149   0.39345787  0.062368375 
  165100       165039    259.70751   -1629.0435    1848.1936   0.62666919   0.44371392    1.2132447  -0.23883223   0.26561696   0.36198915  0.054940049 
  165150       165089    266.59023   -2239.5541    1849.2517   0.62631061   0.41852839    1.2084531   -0.2201288    0.2245465   0.36573743  0.048373264 
  165200       165139    257.55691    7732.7557    1849.5616   0.62620569    0.4427234    1.2058818  -0.23057873   0.21085747   0.39906331  0.063381343 
  165250       165189    241.28367   -3882.1395    1850.7017   0.62581991   0.49143064    1.2063703  -0.23551879    0.2355553   0.43669351  0.054700622 
  165300       165239    239.33832    6725.8952    1851.0609   0.62569848   0.49588125    1.2050568  -0.19043865   0.24665163   0.37864467  0.061023606 
  165350       165289    245.25111   -3762.9429    1855.0616   0.62434906   0.48003172    1.2067272  -0.22453255   0.22963507   0.39581671  0.079112487 
  165400       165339    260.45613   -2097.0152    1855.9205   0.62406012   0.44158428    1.2133333  -0.21436145   0.21286548   0.38207356  0.061006696 
  165450       165389    263.25844    2583.2585    1854.9961   0.62437111   0.43341126    1.2134637  -0.22805593   0.23287634   0.36105972  0.067531122 
  165500       165439    272.95298   -2322.2574    1853.8521    0.6247564   0.40480539    1.2135834  -0.20729273   0.23919966   0.30415279  0.068745668 
  165550       165489    277.31468    1484.6118    1855.3769   0.62424295   0.39325824    1.2149603   -0.2049028    0.2038889   0.31942019   0.07485194 
  165600       165539    282.23384    1330.4378     1858.955   0.62304143   0.38153714    1.2178149   -0.2258792   0.22175468   0.31526028  0.070401377 
  165650       165589    267.01781   -3287.8092    1861.8617   0.62206874    0.4284956    1.2196873  -0.20956174   0.23816883   0.33048057  0.069407938 
  165700       165639    275.53697    1339.1348    1863.4102   0.62155179   0.40609333    1.2225279  -0.20711101   0.21761202   0.30961908   0.08597324 
  165750       165689    275.65777    68.986645    1866.5984   0.62049019   0.40837095    1.2251634  -0.22468171   0.22323115   0.34272665  0.067094858 
  165800       165739    273.40122    2081.9517     1865.488   0.62085952   0.41469761    1.2248038  -0.20252539   0.21555283   0.32033331  0.081336846 
  165850       165789    250.86475   -5559.5959    1861.8206   0.62208248   0.48486564    1.2281947  -0.22800311   0.29561583   0.33933541  0.077917514 
  165900       165839    253.10045   -392.39739    1853.7725   0.62478325   0.48096597    1.2309196  -0.19790393   0.26219075   0.34718487  0.069494274 
  165950       165889    251.43298   -6303.1422    1846.6702   0.62718614   0.48574227    1.2307551  -0.21335485   0.27463765   0.35255688  0.071902595 
  166000       165939    249.07126    4950.8421    1840.1328   0.62941433   0.49365595    1.2316708  -0.20165778   0.25877002    0.3501982  0.086345509 
  166050       165989    266.33134   -991.07824    1834.8031   0.63124265   0.44385433     1.233012  -0.20920555   0.24035523   0.34642145  0.066283188 
  166100       166039    273.25073    270.66918    1830.0808   0.63287148    0.4248029    1.2344632  -0.21353634   0.23008048   0.32838529  0.079873472 
  166150       166089    266.15142   -4125.6375    1826.5668   0.63408903   0.44496381    1.2335883   -0.2141424   0.23771843   0.35385913  0.067528644 
  166200       166139    293.34911    3321.4058    1823.7112   0.63508189   0.36019015    1.2294032  -0.21942231   0.17231293   0.33006842  0.077231109 
  166250       166189    278.72655    3033.5427    1822.1429   0.63562851   0.40418973    1.2300752  -0.21538635   0.19656663   0.36114118  0.061868269 
  166300       166239    268.14862    1053.3285    1821.3962   0.63588909   0.43784236    1.2323847  -0.21319061   0.22475892   0.34798935  0.078284691 
  166350       166289    277.73335   -3239.3222     1821.691   0.63578618   0.41324875    1.2361913  -0.22073851   0.26088887   0.29922951  0.073868884 
  166400       166339    256.19418   -2876.9652    1822.8543   0.63538044   0.47927454    1.2383951  -0.21162217   0.28520867   0.32699799   0.07869006 
  166450       166389    262.83924    1816.8602    1824.8353   0.63469067   0.46118259    1.2399929  -0.21341204   0.25133024   0.34220125  0.081063139 
  166500       166439    257.82062    -3062.667     1827.471   0.63377529   0.47392155    1.2378614  -0.23165534   0.29739466   0.31783471  0.090347519 
  166550       166489    270.63922    2273.3847    1826.7032   0.63404167   0.43347443    1.2353966  -0.23342037   0.24720028   0.36163765  0.058056874 
  166600       166539    284.83951   -3961.9543    1824.3731   0.63485148   0.38354225    1.2275408  -0.24728892   0.24861354   0.31384417  0.068373466 
  166650       166589    261.10533    2510.0996    1820.0206    0.6363697   0.45154674    1.2252194  -0.19643196   0.20993522   0.36730684  0.070736645 
  166700       166639    272.80149    2712.6518    1821.6818    0.6357894    0.4177268    1.2260559  -0.23585979   0.20702599   0.37434708  0.072213516 
  166750       166689    257.84473    3027.0344    1822.7557   0.63541482   0.46531883    1.2293301   -0.2235891    0.2418378    0.3535255  0.093544622 
  166800       166739    257.99369    -990.3759    1824.1536   0.63492789   0.46767061    1.2321232  -0.24559269   0.27212537   0.35951799  0.081619937 
  166850       166789    253.59917    2517.9921    1822.9651   0.63534183    0.4813857    1.2328171  -0.23169747   0.27661127   0.33948592   0.09698598 
  166900       166839    257.69449    -3580.225    1821.3154    0.6359173   0.47025783    1.2338239  -0.22817112   0.27387541    0.3442793  0.080274231 
  166950       166889    270.71488    2253.6778    1819.8264   0.63643762   0.43329986    1.2354462  -0.24851389   0.26436212   0.34492296  0.072528679 
  167000       166939    247.84815    1548.7685    1814.6219   0.63826299    0.4991537    1.2335444  -0.24133708   0.30144072   0.33808746   0.10096261 
  167050       166989    256.95532   -3661.9942    1807.8106   0.64066775   0.46931704    1.2306929  -0.22060517   0.30470749   0.30715052  0.078064195 
  167100       167039    286.04716    50.101027     1804.149   0.64196802   0.38214117    1.2297181  -0.24762569   0.24554904   0.30801555   0.07620226 
  167150       167089    267.02423   -2690.7528    1799.5499   0.64360871   0.43494266    1.2261534  -0.23566467   0.24274912   0.32083743   0.10702079 
  167200       167139    262.34334    3592.9246    1793.1804   0.64589485   0.44998252    1.2273235  -0.22602521   0.24683702   0.34787802  0.081292684 
  167250       167189    252.49594   -239.32225    1786.0976   0.64845615   0.48128347    1.2294459  -0.23719281   0.29338818   0.33304862  0.092039477 
  167300       167239    265.72765   -4690.9399    1777.4393   0.65161491   0.43844725    1.2258161  -0.24448347   0.26486184   0.32303877  0.095030107 
  167350       167289    265.88609   -177.66179    1767.2559   0.65536969   0.43511769     1.222956  -0.25236928   0.24782826    0.3595865  0.080072217 
  167400       167339    249.70308   -1006.2344    1755.5754   0.65973014   0.48074145    1.2206284  -0.23412167   0.25608735   0.35340946    0.1053663 
  167450       167389    250.72778    2764.9069    1743.1056   0.66444968   0.47808206    1.2210053  -0.25772766   0.26252286   0.38005124  0.093235621 
  167500       167439    254.62813   -1073.3556    1731.4136   0.66893663   0.46195612    1.2164364  -0.25018495   0.26422982   0.37046352  0.077447744 
  167550       167489    261.31255   -4391.1164    1721.1847   0.67291209   0.43735934     1.211646  -0.26746151   0.27499094   0.35818886  0.071641041 
  167600       167539    251.40144    3348.2369     1712.864   0.67618094   0.46341929    1.2083386  -0.25303064   0.29315335   0.35106538  0.072231207 
  167650       167589    273.02468   -949.04746     1706.932   0.67853081   0.39404236    1.2030328  -0.26826191   0.22656565   0.35468424  0.081054382 
  167700       167639    261.36287    4671.6514    1700.4104   0.68113321   0.42454509    1.1989808  -0.26025326   0.24911183   0.34402905  0.091657473 
  167750       167689    258.93353   -941.85602    1695.5317   0.68309306   0.42983361     1.197071  -0.27443964   0.24791489   0.37065047  0.085707897 
  167800       167739    261.48316    755.43798    1691.4492    0.6847418   0.41744918    1.1922413  -0.20133903   0.22383738   0.31900162  0.075949209 
  167850       167789    274.69723    3867.7709      1695.29   0.68319047   0.38185416    1.1958005  -0.25754886   0.25086382   0.31960013  0.068939075 
  167900       167839    266.90271   -1416.9228     1702.537   0.68028242   0.40211346    1.1929641  -0.25661868   0.24486234   0.34957907  0.064290732 
  167950       167889    270.85586    1118.0555    1711.0344   0.67690397   0.38806267    1.1906268  -0.25741975   0.25673925   0.32008292  0.068660247 
  168000       167939    254.76279   -540.34108    1719.4646   0.67358525   0.43359109    1.1884703   -0.2245685   0.23092737   0.35715882  0.070073397 
  168050       167989      258.768    509.14622    1728.7164   0.66998033   0.42183023    1.1885772  -0.23802949   0.24773442   0.34788302  0.064242284 
  168100       168039    265.42167    5754.3281    1739.1758   0.66595105   0.40145589    1.1879181  -0.25763552   0.24281505    0.3514765  0.064799867 
  168150       168089    258.21492   -524.15817    1749.3012   0.66209636   0.42422849    1.1893366  -0.24497087   0.24495512    0.3513608  0.072883438 
  168200       168139    252.04162    2088.3588    1757.0866    0.6591627   0.44626709    1.1930833  -0.24778833   0.27440995    0.3378085  0.081836974 
  168250       168189    226.70386    418.97451    1763.1128   0.65690972   0.52869278    1.2004315  -0.21846757   0.31078809   0.35608421  0.080288043 
  168300       168239    249.80968   -1033.3781    1767.1605   0.65540508   0.46102488    1.2012277  -0.25016907   0.25888975    0.3728095  0.079494698 
  168350       168289     259.6729   -1019.6128    1767.0359    0.6554513   0.42958009    1.1990083  -0.24508821   0.25697852   0.35013057  0.067559215 
  168400       168339    249.21802   -2562.1768    1766.1225   0.65579027   0.46106489    1.1995146  -0.23559438   0.26015513   0.34244822  0.094055919 
  168450       168389    246.49464   -3073.6478    1764.0462   0.65656217   0.47434661    1.2047268  -0.22338484   0.26934107   0.35846431  0.069926063 
  168500       168439    252.51557    954.42263    1766.1668   0.65577384   0.45741653    1.2056371  -0.25831336   0.27274126   0.37888556  0.064103068 
  168550       168489    266.57071    -3388.671    1763.5301    0.6567543    0.4140712    1.2039381  -0.23232581   0.21701304   0.36169631  0.067687654 
  168600       168539     273.7045    2857.1085    1762.6199   0.65709345   0.39448217     1.205487   -0.2424784   0.23682517   0.32920418  0.070931226 
  168650       168589    248.31162    1397.7468    1761.8957   0.65736351   0.46857595    1.2043399  -0.23039021   0.24900518   0.37610446  0.073856516 
  168700       168639    256.89791    327.71205    1760.4924   0.65788753   0.44330346    1.2045092  -0.21888108   0.24540106   0.34282987  0.073953615 
  168750       168689    250.17721    2702.1681    1761.9122   0.65735736   0.46420613     1.205498  -0.24798514   0.24615362   0.35974149   0.10629616 
  168800       168739    290.77295   -3789.7325    1760.8147   0.65776709   0.34877969    1.2103595  -0.24441837   0.23554384   0.30598482  0.051669396 
  168850       168789    266.43266    1381.7084    1760.2425    0.6579809   0.41861606    1.2080739  -0.24373352   0.25543021   0.32823324  0.078686134 
  168900       168839    283.09032    317.58641    1760.4006   0.65792183   0.36893854    1.2077542  -0.26112491   0.23982938   0.32830002  0.061934049 
  168950       168889    252.77395   -3257.3769    1760.0853   0.65803967   0.45770908    1.2066953  -0.23183096   0.26578118   0.35779004  0.065968819 
  169000       168939    261.46888    6012.6956    1762.4367   0.65716173    0.4320417    1.2067915   -0.2542633   0.26265043   0.34760988  0.076044684 
  169050       168989    262.11588   -8571.1974    1763.2014   0.65687674   0.42932651    1.2059935  -0.25070535   0.28620123    0.3264844  0.067346228 
  169100       169039    273.08808    10857.367    1764.1454   0.65652524   0.39522686    1.2044052  -0.23942552   0.26372872   0.30198221  0.068941441 
  169150       169089     255.8178   -6730.0419    1766.1009   0.65579831    0.4479533    1.2059586  -0.25124216   0.26599022   0.35306572  0.080139519 
  169200       169139    240.97653    4625.5118    1767.4562   0.65529543   0.49537392    1.2094036  -0.20662885   0.27217206   0.36055473  0.069275969 
  169250       169189    254.66061    1182.8299    1777.3999   0.65162936   0.45646266    1.2110391  -0.24109175    0.2609129   0.37154994  0.065091562 
  169300       169239    259.63698     98.46864    1786.7762   0.64820989   0.44197845    1.2113002  -0.23371087   0.24998885   0.35029864  0.075401818 
  169350       169289    267.41811    938.22361    1795.5236   0.64505195   0.42065842    1.2130362  -0.25404241   0.26560884   0.33238254  0.076709457 
  169400       169339    255.16227   -1180.2775    1800.9637   0.64310345   0.45970471    1.2157677  -0.24396563   0.28484511   0.34293342  0.075891809 
  169450       169389    237.71158   -3122.3358    1803.3812   0.64224136   0.51678435    1.2211397  -0.20298473    0.2734712   0.37154831  0.074749576 
  169500       169439    251.35841    5781.2429    1807.6056   0.64074043   0.47950732    1.2242992  -0.24331992   0.26915188   0.37511897  0.078556393 
  169550       169489    239.01721   -5358.9563    1808.2649   0.64050682   0.51602456    1.2242486  -0.23648306   0.28114625   0.41016659  0.061194784 
  169600       169539    257.27847    2169.2678    1806.1157   0.64126898   0.45901827    1.2213516  -0.23874365   0.27840817   0.36150005  0.057853705 
  169650       169589    240.01778   -4822.9985    1803.5979   0.64216419   0.50948367    1.2206725   -0.2488747   0.28199386   0.39946287  0.076901637 
  169700       169639    258.08987   -11.200758    1797.7453   0.64425476   0.45352351    1.2182611   -0.2323028   0.25476952   0.35862183  0.072434958 
  169750       169689    255.24468    7021.5711    1794.4741   0.64542918   0.46491026    1.2212174  -0.23154602   0.24181193   0.39763859  0.057005765 
  169800       169739    263.43194   -306.46909     1794.263   0.64550513   0.44180213    1.2223686  -0.24014826    0.2417672   0.37242209  0.067761094 
  169850       169789    251.07145    1491.1194    1796.0459   0.64486435   0.47822668    1.2221682  -0.22439196   0.24375477   0.38615803  0.072705845 
  169900       169839    254.10683   -1015.2408    1799.3628   0.64367562    0.4693228    1.2222584  -0.24073832    0.2585781   0.37919666  0.072286354 
  169950       169889     269.1769   -3150.0714    1802.2207   0.64265489   0.42450207    1.2220913  -0.21973901   0.23322314   0.35429724  0.056720701 
  170000       169939    248.81062    5936.7704    1807.4339   0.64080129   0.48464034    1.2218829  -0.23291608   0.24824623   0.40428103  0.065029164 
  170050       169989    257.76792    1569.7512    1810.4164   0.63974563    0.4563085    1.2200922  -0.20043646   0.25018654   0.34100594  0.065552479 
  170100       170039    271.29307   -337.62834    1816.3769   0.63764627   0.41628164    1.2201412  -0.24209581   0.22771956    0.3501855  0.080472393 
  170150       170089    270.43837    -2390.972    1816.9979   0.63742835   0.41842915    1.2197562  -0.22796947   0.23554989   0.34091383  0.069934901 
  170200       170139    265.66392    3814.1464    1815.4939   0.63795642   0.43110939    1.2182894  -0.22735518   0.27552948   0.32879848  0.054136611 
  170250       170189    259.18678   -2590.6543    1816.1093   0.63774022   0.44641158    1.2143994  -0.22269942   0.25611552   0.33091108  0.082084407 
  170300       170239    252.73076    1453.8108    1815.3374    0.6380114      0.46507    1.2139282  -0.19986441   0.26024331   0.32627238  0.078418719 
  170350       170289    252.06695   -6562.4785    1818.7669   0.63680836   0.47165179    1.2185431  -0.21234307   0.31742189     0.298234   0.06833896 
  170400       170339    266.58831    774.41937    1824.0061   0.63497921   0.43085854    1.2207776  -0.22073291   0.24327367   0.33873496  0.069582818 
  170450       170389    269.63921    2827.8426    1830.5788   0.63269931    0.4229331    1.2218922  -0.22154648   0.23997771   0.32825383  0.076248041 
  170500       170439    269.75621    3671.1644     1840.136   0.62941325   0.42124953    1.2205553  -0.22385823   0.22083685   0.36505505  0.059215858 
  170550       170489    273.24779   -390.47717    1849.1029   0.62636103   0.41007654    1.2197281  -0.21933563   0.22011182   0.34309645  0.066203889 
  170600       170539    262.94232    2172.6437    1858.1878   0.62329868    0.4448387    1.2239544  -0.21381211   0.26901226   0.31421427  0.075424281 
  170650       170589    261.61676   -2240.0655    1865.8274   0.62074657   0.44954196      1.22473  -0.21975427   0.28011895   0.31399986  0.075177431 
  170700       170639    278.55165    1808.6954    1868.8393   0.61974616   0.39670988    1.2220771  -0.21440289   0.23932305   0.31228131  0.059508404 
  170750       170689    274.31702   -2829.8699    1870.5057   0.61919405   0.40723011    1.2200499  -0.21824246   0.23887873   0.32946919  0.057124647 
  170800       170739    271.67732     -4714.17    1868.9465   0.61971061   0.41432107    1.2193192     -0.21201   0.28456647   0.28393251  0.057832079 
  170850       170789    248.29161   -1986.2973    1866.7209   0.62044946   0.48240545    1.2181102  -0.22754761   0.29215102   0.33384674  0.083955308 
  170900       170839    258.93976      2594.47    1862.8488   0.62173913    0.4496032    1.2168591  -0.19387526   0.25305227   0.32799862   0.06242756 
  170950       170889    255.82077    774.90444    1860.4752   0.62253234   0.45977477    1.2177889  -0.21225288   0.25658156   0.33917325  0.076272841 
  171000       170939     253.1561    1103.0293    1858.2494     0.623278   0.46690654    1.2170251  -0.22269332   0.27274424   0.35173369  0.065121924 
  171050       170989    245.86663   -531.58096    1856.8322    0.6237537   0.48666299    1.2151823  -0.19345612   0.25228733   0.35158083  0.076250952 
  171100       171039    249.11907    3386.0102    1858.4637   0.62320613   0.48033204    1.2184886  -0.19836812   0.23705108   0.36739378  0.074255296 
  171150       171089    267.01229    1296.2886    1864.0064   0.62135301   0.43085775    1.2220331   -0.2201792   0.24704147   0.34140923  0.062586259 
  171200       171139    269.44305   -1414.3172    1868.6388   0.61981264   0.42372488    1.2221027  -0.22333379   0.24699461   0.33686062  0.063203447 
  171250       171189    253.25329    -427.9371    1871.2855   0.61893602    0.4707628    1.2211693  -0.20831301   0.25484007   0.34873592  0.075499815 
  171300       171239    243.11553    2006.4509    1873.3318   0.61825993   0.50339712    1.2237648  -0.18976122   0.25708064   0.37209488  0.063982818 
  171350       171289    235.88306    1705.9882    1878.7877   0.61646452   0.52867626    1.2276136  -0.18161822   0.28081512   0.36142649  0.068052868 
  171400       171339    265.48521    4382.7654    1887.8741   0.61349748    0.4399981    1.2266486  -0.20194645   0.25465721   0.32915753   0.05812982 
  171450       171389    251.41693    -789.8614    1899.6133    0.6097062   0.48118559    1.2261508  -0.16880777   0.26119721   0.33109437   0.05770178 
  171500       171439    267.47932    1359.7057    1915.1741   0.60475231   0.43740873    1.2299679   -0.2050113   0.24681825   0.34496889  0.050632888 
  171550       171489    251.96879   -657.58452    1927.0871   0.60101383   0.48256293    1.2291634  -0.17818771   0.22509018   0.37670331  0.058957148 
  171600       171539    261.30648    2146.9986    1936.7472   0.59801607   0.45582372    1.2300924  -0.17428112   0.20886052   0.33828116  0.082963168 
  171650       171589     252.8351    -3567.082    1945.8292   0.59522489   0.48984683    1.2390142  -0.17922859   0.23190988   0.37114939  0.066016147 
  171700       171639    264.73266    2148.6071    1950.4599   0.59381173   0.45808207    1.2425027  -0.18651116   0.20522027   0.37655444  0.062818518 
  171750       171689     271.6684   -3957.6992    1953.6653   0.59283746   0.43844563    1.2434173  -0.19305331   0.23327771   0.33456696  0.063654264 
  171800       171739    250.66358    939.36128     1953.884   0.59277109   0.50307143    1.2458045  -0.19540874    0.2678937   0.36076128  0.069825197 
  171850       171789     260.9821    1657.6927    1950.4787     0.593806   0.47301492    1.2463224  -0.19645409    0.2805419   0.32354535  0.065381763 
  171900       171839    251.89459   -284.16382     1946.941   0.59488498   0.49754567    1.2439263  -0.17406327   0.25464011   0.35171155  0.065257279 
  171950       171889    235.15745    635.61328    1945.9897   0.59517581   0.55241867     1.249206  -0.19141751    0.3120652   0.35733499  0.074435985 
  172000       171939    258.03355    4175.0875    1946.3419   0.59506809   0.48331579    1.2478865  -0.20252227   0.27063723   0.35357527  0.061625562 
  172050       171989    277.46761    725.65368    1945.6417   0.59528226   0.42008415    1.2422393  -0.20799276   0.20664144   0.36734776  0.054087719 
  172100       172039    259.46461   -646.62527    1944.4118   0.59565879   0.47054789    1.2393589  -0.17865332   0.22970466   0.34768561  0.071810936 
  172150       172089     248.0643   -160.61404     1943.244   0.59601676   0.50926974    1.2443009  -0.19282603   0.22916115   0.39513922  0.077795397 
  172200       172139    267.51414   -2233.5695    1940.6492   0.59681368   0.45212455    1.2447869  -0.18864714   0.23313233   0.33981614  0.067823218 
  172250       172189    257.54281    810.65505    1940.4003   0.59689022   0.47999504    1.2431117  -0.18881987   0.19831275   0.40031663  0.070185531 
  172300       172239    260.74137    2677.9323    1940.1301   0.59697334   0.47263382     1.245228  -0.19366659   0.23820576   0.34417737  0.083917278 
  172350       172289     250.6926    -1570.456    1938.8661   0.59736254   0.50699814    1.2498171  -0.18625127    0.2766714    0.3459543   0.07062371 
  172400       172339    240.28249   -319.24581    1936.7587   0.59801253   0.53912813    1.2511013  -0.19015602    0.2906538   0.36060322  0.078027132 
  172450       172389    255.39394   -4395.4083    1931.9484    0.5995015   0.49039638    1.2471458  -0.19154251   0.24299704   0.36748319  0.071458657 
  172500       172439    261.87854    3985.0162      1923.71   0.60206891   0.46820435     1.244168  -0.19503264   0.21108527   0.37864208  0.073509642 
  172550       172489    249.13039    1155.7929    1913.7092   0.60521524   0.50570265    1.2438927  -0.18387993   0.23255135   0.39022067  0.066810568 
  172600       172539    258.98867    4472.2988    1905.8949   0.60769666   0.47678919      1.24419  -0.17044175   0.21334327   0.35789265  0.075995027 
  172650       172589    258.81435   -2956.1224    1903.0571   0.60860284    0.4779051    1.2447894  -0.17703294   0.23220107   0.36736888  0.055368096 
  172700       172639    278.87429    304.68894    1902.7833   0.60869044   0.41703816    1.2433614  -0.18224876   0.22331606   0.30680194  0.069168922 
  172750       172689    279.03398   -553.95065    1902.8892   0.60865655   0.41470201    1.2414984  -0.22472104   0.23997646   0.33566296  0.063783632 
  172800       172739    269.94788    2123.8155    1898.8027   0.60996648   0.43749578    1.2373695  -0.20844236   0.25110586   0.32258739  0.072244894 
  172850       172789    259.26609    -3918.399    1894.0049    0.6115116   0.46775249    1.2359753  -0.18867991    0.2731643   0.30199835  0.081269742 
  172900       172839    260.87526     511.9911    1891.3649   0.61236517   0.46473205     1.237723  -0.19671124   0.25011737   0.33525279  0.076073135 
  172950       172889    276.96693   -3770.5778     1890.833   0.61253742   0.41796514    1.2386367  -0.21949373   0.24480281   0.33052645  0.062129607 
  173000       172939    258.42516    3443.9736    1890.4888   0.61264894   0.47177492     1.237506  -0.21022883     0.241709   0.35122646  0.089068292 
  173050       172989    272.31798   -1324.2434    1889.4541   0.61298445   0.42889606    1.2357925  -0.22371056   0.20967661   0.37114856  0.071781441 
  173100       173039      268.977   -979.83512    1885.2677   0.61434563   0.43398719    1.2309841   -0.2178957   0.21590116   0.36272089  0.073260836 
  173150       173089    258.36646    190.30944    1880.0192   0.61606073   0.46282106    1.2283782  -0.18553409   0.20826254   0.37060841  0.069484203 
  173200       173139     262.1912    3698.0192    1878.0542   0.61670529   0.45468743    1.2315775  -0.21140224   0.21402947   0.38426654  0.067793661 
  173250       173189    256.48423    3089.3434    1877.2104   0.61698251   0.47296733    1.2329473  -0.20269124   0.25190664   0.34698804   0.07676389 
  173300       173239    253.58837    -468.7209    1879.7072   0.61616298   0.48075418    1.2321536  -0.20059472   0.25740038   0.35992271  0.064025808 
  173350       173289    251.87084   -2639.7297    1884.4815   0.61460193     0.489748    1.2360582  -0.20062191   0.29039964   0.30879326  0.091177004 
  173400       173339    241.38312    2073.3494    1891.1249   0.61244287    0.5245232    1.2397576  -0.18358837   0.30015929    0.3436155  0.064336775 
  173450       173389    246.23734    770.34518     1900.446   0.60943902   0.51101034    1.2406281  -0.20702846   0.25584529     0.371615  0.090578507 
  173500       173439    262.42544    2670.3508    1907.1881   0.60728459   0.46383154    1.2414157  -0.16743673   0.22471485    0.3274517  0.079101728 
  173550       173489    256.02036   -1794.5165    1916.1054   0.60445838   0.48706789    1.2456734   -0.1836941   0.24999147   0.34614454  0.074625976 
  173600       173539    271.46487    1118.9418    1924.7509   0.60174331    0.4441459    1.2485145  -0.19892549   0.24658545   0.33607399   0.06041195 
  173650       173589    276.51004   -744.63128    1929.8633   0.60014923    0.4287929    1.2481107   -0.1769093   0.23074588   0.31863216  0.056324159 
  173700       173639    278.22469     3250.981    1934.6085    0.5986772   0.42134087    1.2457393  -0.20190229   0.21655647   0.34928281  0.057403873 
  173750       173689    266.07295    419.02859    1937.1706   0.59788538   0.45652859    1.2449206  -0.17562378   0.21334001   0.34838764   0.07042472 
  173800       173739    263.33158   -1391.0239    1940.6122   0.59682506   0.46902887     1.249298  -0.20071127   0.25360083   0.34035823  0.075781072 
  173850       173789    243.48044   -54.528316    1942.1707   0.59634613   0.53243058    1.2538795  -0.18940926   0.25062711   0.39601309  0.075199626 
  173900       173839    228.40683    4283.5749    1943.7816   0.59585189   0.57936213    1.2561469  -0.18164807   0.26531129   0.39934282  0.096356086 
  173950       173889    238.97108    357.74602    1944.8308   0.59553044     0.551613    1.2597003  -0.18085114   0.24131458   0.41285716  0.078292401 
  174000       173939    242.63262    -51.31121    1946.7343   0.59494815   0.54303963    1.2619764  -0.17854835   0.25940012   0.37624704   0.08594081 
  174050       173989    241.07067   -331.16272     1950.724   0.59373135   0.55219136    1.2664999  -0.17947432   0.30148615   0.36174236  0.068437165 
  174100       174039     257.2878   -2049.0732    1953.2368   0.59296752   0.50092797     1.263289   -0.1963637   0.28266135   0.33280026  0.081830062 
  174150       174089    272.31955    1374.0459    1951.5067   0.59349321   0.45199538    1.2588965  -0.19886695   0.28714269   0.29261167   0.07110797 
  174200       174139    266.79295   -1928.7744    1947.2883   0.59477888   0.46094201    1.2514674  -0.19963655   0.26283512   0.32761504  0.070128404 
  174250       174189    272.41501    1955.4974     1939.856   0.59705769   0.43827494    1.2454589  -0.18481981   0.20835121   0.34940379  0.065339754 
  174300       174239    280.27903    -1176.062    1932.6436   0.59928585   0.41058359    1.2410692  -0.19926647   0.23364309   0.30595829  0.070248679 
  174350       174289    285.26577   -451.35081    1926.8535   0.60108669   0.39603582    1.2412974   -0.1968371   0.23150701   0.29365111  0.067714791 
  174400       174339    280.62564    2385.6027     1921.358   0.60280591   0.41037047    1.2418831  -0.21207847   0.23293528   0.31529374  0.074219918 
  174450       174389    260.58783   -5913.5795    1914.6275   0.60492497   0.46660935    1.2387486  -0.22118313   0.26828981   0.33573462  0.083768047 
  174500       174439    259.65354    619.29698     1904.914   0.60800957   0.46692547    1.2362963  -0.20442761   0.27751779   0.32392475  0.069910539 
  174550       174489     246.1523   -2288.3768    1896.5439   0.61069295   0.50444829    1.2338141  -0.20057844   0.29018342    0.3423132  0.072530113 
  174600       174539    255.67353    4524.2256    1891.0156   0.61247827   0.47605081    1.2336287  -0.20491179   0.26769098   0.33666708  0.076604537 
  174650       174589    248.89119    250.76786    1888.5702   0.61327133   0.49411527    1.2315966  -0.20002066   0.29892809    0.3242639  0.070943938 
  174700       174639    250.51156   -724.15265    1889.3841   0.61300714   0.48588271    1.2281653  -0.18993429   0.28700579   0.31403741  0.074773798 
  174750       174689    259.78744    2573.4609    1893.3715   0.61171616   0.45794314    1.2277108  -0.18293459   0.22870859   0.35698451  0.055184637 
  174800       174739    264.47191   -311.24538     1900.575   0.60939767   0.44326421    1.2269122  -0.19660885   0.21865791   0.33742162  0.083793517 
  174850       174789    264.20232   -4912.3745    1905.9945   0.60766492   0.44597961    1.2288288  -0.20282254   0.25414963   0.31429552  0.080356999 
  174900       174839    272.18998    2687.5274    1909.2372   0.60663284   0.42408898    1.2306062  -0.19229141   0.22246932   0.31558391  0.078327165 
  174950       174889    253.10794    -8713.239     1912.427   0.60562101   0.48303997    1.2330158  -0.20957069   0.25934881   0.33941965    0.0938422 
  175000       174939    265.24112     7810.132    1913.5071   0.60527915    0.4476076    1.2335348  -0.18322272   0.21452208   0.34089903  0.075409212 
  175050       174989    255.82725   -51.919579    1916.4542   0.60434836   0.47419774    1.2322311  -0.21717909    0.2158378   0.38492387   0.09061516 
  175100       175039    266.92313    544.78675    1915.0773   0.60478289   0.44154496    1.2324561  -0.19284298   0.20388368   0.34714319  0.083361069 
  175150       175089    262.45373     1960.935    1914.1308   0.60508192   0.45587086    1.2335389  -0.19346638    0.2069611   0.36479445  0.077581692 
  175200       175139     263.8028    875.56791    1913.2439   0.60536242   0.44994542    1.2316108  -0.19018326   0.22025461    0.3289399  0.090934174 
  175250       175189    263.32039      257.652    1912.4696   0.60560753   0.45329503     1.233531  -0.20244566   0.23430294   0.33731036   0.08412738 
  175300       175239    244.87133    3904.0655    1911.6305   0.60587335   0.51161891    1.2371891  -0.18067995   0.29929051   0.32071589  0.072292454 
  175350       175289     246.5315   -5455.9693     1915.744   0.60457241   0.50818854    1.2386779  -0.19512455   0.29597371   0.33085403  0.076485354 
  175400       175339    244.01135    3804.3452    1919.7781   0.60330199   0.51760293    1.2406249  -0.17229612   0.23683235   0.37053941  0.082527294 
  175450       175389    234.70982   -686.76395    1924.0469   0.60196347    0.5477129    1.2431739  -0.18682632   0.27916346   0.35666522  0.098710546 
  175500       175439    245.70733    3565.3848    1929.0311   0.60040813   0.51941007    1.2474574  -0.17101738    0.2581241   0.35915469  0.073148661 
  175550       175489    254.26288   -5420.0641    1935.5758     0.598378   0.49215527    1.2455533  -0.22246985   0.25856565   0.37368883  0.082370648 
  175600       175539    266.92667     2124.671    1933.4392   0.59903924   0.44871226    1.2396339  -0.17162575   0.21953506   0.32229976   0.07850319 
  175650       175589    270.08201   -4667.0477    1930.0362   0.60009548   0.43461777    1.2348889  -0.21575144   0.21435634    0.3633555  0.072657361 
  175700       175639    270.06929    946.32862    1920.3792   0.60311316   0.43195732    1.2321908  -0.18809558   0.20993053   0.32936099  0.080761386 
  175750       175689    257.84381    2350.1401     1912.178   0.60569989   0.46888869    1.2328972  -0.19016421   0.21172431   0.34910604  0.098222561 
  175800       175739    283.92929   -3049.1963    1904.5684   0.60811992   0.39202511    1.2333267  -0.19865364   0.20924958    0.3064874  0.074941775 
  175850       175789     268.7748    3805.7549    1897.9543   0.61023912   0.43636688    1.2327646  -0.20040824    0.2085566   0.32678742   0.10143111 
  175900       175839    274.05864   -4741.1529     1893.928   0.61153642    0.4246825    1.2367367  -0.22022932   0.23246295   0.33413661  0.078312259 
  175950       175889    269.74201    5422.8622    1890.0906   0.61277802   0.43488441    1.2341481   -0.2008543   0.25259925   0.31021068  0.072928769 
  176000       175939    270.36347   -1167.2447    1887.6046   0.61358507   0.42817811    1.2292832  -0.21699596   0.25153028   0.31721669  0.076427096 
  176050       175989    278.54144   -3348.0044    1884.9276   0.61445647   0.39817696     1.223514  -0.20940685    0.2520316   0.27198642   0.08356579 
  176100       176039    267.15892     3787.524    1884.1452   0.61471164   0.43252604    1.2241358  -0.20383053   0.27820676   0.27524502  0.082904786 
  176150       176089    245.08512   -4335.8838    1887.2133   0.61371229   0.49941459    1.2256183  -0.18694867   0.28802269   0.32422247  0.074118088 
  176200       176139    266.19598    7134.3957    1893.3384   0.61172686   0.43603741     1.224794  -0.19051412   0.25630859   0.28228165  0.087961284 
  176250       176189    257.25989   -7161.8073    1903.1794   0.60856372   0.46402325    1.2263016  -0.19264644   0.23992636   0.32910524  0.087638093 
  176300       176239    243.66561    4071.6191     1913.002   0.60543897    0.5070665     1.229064  -0.19710106   0.25544921    0.3573555   0.09136284 
  176350       176289    244.54595   -1874.2036    1922.7093   0.60238226   0.50865918    1.2332653  -0.20090707   0.25333382   0.36463496  0.091597471 
  176400       176339    242.01078   -1421.3105    1930.7437   0.59987557   0.51774031    1.2348345  -0.19079774   0.23755219   0.39581387   0.07517199 
  176450       176389    269.99813    3802.7616    1937.2968   0.59784643   0.43099294    1.2310155  -0.19738911   0.21359447   0.35102504  0.063762549 
  176500       176439     257.6894   -2438.6387    1942.2338   0.59632675   0.46905624    1.2326072  -0.20444389    0.2467613   0.34870713  0.078031707 
  176550       176489    253.00995     3199.595    1944.8495   0.59552473   0.48544746    1.2351329  -0.18399348   0.26099833     0.329735  0.078707598 
  176600       176539    261.87987   -2768.6546    1947.0585   0.59484908   0.46283686    1.2388045  -0.20069724   0.26201789     0.321079  0.080437209 
  176650       176589    263.40719    787.35592    1950.1831     0.593896    0.4600359    1.2405291  -0.17894356   0.22625336   0.33939587  0.073330231 
  176700       176639    260.46849   -1101.7742     1953.649   0.59284239   0.47007528    1.2418609  -0.19460469   0.22920982   0.34226286  0.093207287 
  176750       176689    247.30753    5840.5619    1956.6018   0.59194773   0.51278747    1.2455763  -0.17694993   0.25916191   0.33945522  0.091120266 
  176800       176739    271.67112   -6536.6954    1959.6049   0.59104056   0.44149454    1.2464743  -0.18001286   0.24293785   0.30559513  0.072974417 
  176850       176789     269.4098    6047.6092    1961.6595   0.59042152   0.44565386    1.2439332  -0.19439461   0.22371417   0.33562113  0.080713168 
  176900       176839    261.00171   -6025.5919     1964.447   0.58958373   0.47093313    1.2442987  -0.19432852   0.23141369   0.35779215  0.076055807 
  176950       176889    250.05067    7103.2391    1966.7348    0.5888979   0.50420235    1.2451193  -0.16321802   0.24433784   0.32420814   0.09887439 
  177000       176939    248.98485     125.2566    1971.8137   0.58738104    0.5109689    1.2487277  -0.19116792   0.28563328   0.35788496  0.058618573 
  177050       176989    239.57396   -3886.9169    1976.4847   0.58599287   0.53632068    1.2461944  -0.16942034   0.28320211   0.35173818  0.070800734 
  177100       177039    252.02956    5027.5748    1984.8714    0.5835169   0.49853653     1.245317  -0.18203744   0.26215385   0.34437947  0.074040645 
  177150       177089      260.261   -5907.3699    1994.8364     0.580602   0.47492775    1.2460986  -0.17467339   0.25709997   0.33277564  0.059725535 
  177200       177139    261.73084    6159.3027    2005.0183   0.57765358   0.47222713    1.2477532  -0.18022954   0.26911455   0.31924848  0.064093642 
  177250       177189     263.8722   -2838.8069    2015.3544   0.57469096   0.46495131    1.2468224  -0.16599108   0.24793146   0.30419669   0.07881424 
  177300       177239    274.24256   -43.559642    2023.3718   0.57241382   0.43466447    1.2472636  -0.18723867   0.22855442   0.31752635  0.075822359 
  177350       177289    278.13263   -2302.3632    2026.6204   0.57149626   0.42344576    1.2475714  -0.18904676   0.22806077   0.31759008  0.066841671 
  177400       177339    274.89697     250.8891     2025.597   0.57178498   0.43131032    1.2458485  -0.19408961   0.22523153   0.31700723  0.083161173 
  177450       177389    250.85415    4474.8804    2023.9988   0.57223648   0.50321329     1.246511   -0.1581418   0.26011911   0.32372077  0.077515209 
  177500       177439    274.15164   -2137.7787    2026.3319   0.57157763   0.43740066    1.2497304  -0.18483749   0.23818336   0.30116797  0.082886824 
  177550       177489    245.96699    -2275.328    2030.0244   0.57053796   0.52472585    1.2535425  -0.16540037   0.31378011   0.30854086   0.06780526 
  177600       177539    256.52285    1482.9511    2036.1985   0.56880799   0.49836473    1.2584592  -0.16358043   0.27293916   0.31926631  0.069739683 
  177650       177589    252.22348    3011.7598    2044.4389   0.56651532   0.51047426    1.2578294  -0.15730068   0.26809033    0.3254116  0.074273012 
  177700       177639    274.78713    1054.7969    2053.5552   0.56400042    0.4433158    1.2575285  -0.16769102   0.24511782   0.30290683  0.062982172 
  177750       177689    274.36995   -1859.4587    2063.6445   0.56124298     0.444039    1.2570156  -0.18598532   0.25094135   0.31000517  0.069077796 
  177800       177739    253.51779   -2836.9547    2069.4755    0.5596616   0.50548246    1.2566727  -0.17157646   0.23151209   0.34688601  0.098660807 
  177850       177789    262.90985    469.89541    2071.7424   0.55904921   0.48029498    1.2593145  -0.17401812   0.23766987   0.33083453  0.085808701 
  177900       177839    260.99474    1797.2064    2071.9574   0.55899122   0.48849764    1.2618426  -0.17910738   0.23611363   0.35599435  0.075497034 
  177950       177889    243.96429   -75.284035    2070.0508   0.55950606   0.54070818    1.2635907  -0.14357401   0.24954431   0.35144727  0.083290611 
  178000       177939    262.83903   -213.15415    2071.2569   0.55918027   0.48940481    1.2682145  -0.17905479   0.26336837   0.31617027  0.088920962 
  178050       177989    261.43932   -2912.3883     2070.688   0.55933389   0.49566715    1.2703294  -0.18444585   0.25571008   0.33332758  0.091075339 
  178100       178039    259.11521    2268.5223     2066.771   0.56039395   0.50278427      1.27056  -0.16929177   0.25839808   0.32302511  0.090652837 
  178150       178089    250.53627    1330.6795    2063.9278   0.56116592   0.53008596    1.2724418  -0.16484741   0.26367338    0.3569254  0.074334588 
  178200       178139    271.23435   -1675.8849    2062.5433   0.56154263   0.46882464    1.2725102  -0.18887173   0.26070019   0.31703885  0.079957329 
  178250       178189    273.62151   -12.052958    2060.5279   0.56209186   0.45966298    1.2704219   -0.1838859   0.25305698   0.31067021  0.079821686 
  178300       178239    257.82667   -2194.6081    2057.8399   0.56282608   0.50505981    1.2690175  -0.17540338   0.25381868   0.36133956  0.065304948 
  178350       178289    262.58535    3601.9073     2054.437   0.56375834   0.49042339    1.2684814  -0.16776167    0.2468176   0.32706538  0.084302083 
  178400       178339    247.55891   -5078.7794    2051.5081   0.56456319   0.53656145    1.2700951  -0.18240875   0.27506617   0.35711004  0.086793997 
  178450       178389    275.74552    2625.9456    2045.4235   0.56624261   0.45176928    1.2688218  -0.16727501   0.24063942   0.30752756  0.070877306 
  178500       178439     259.2515   -4960.7148    2038.3573   0.56820556   0.49784284    1.2660224  -0.19393155   0.28514651   0.33299044  0.073637436 
  178550       178489    252.52405    1846.7827     2028.566   0.57094812   0.51819796    1.2664437  -0.16988043    0.2474453   0.34978704  0.090846048 
  178600       178539    257.22436    -2887.962    2019.0145   0.57364916    0.5034684    1.2656415  -0.18650234   0.26576643   0.32444202  0.099762294 
  178650       178589     273.0549    3746.9575    2006.3629   0.57726644   0.45406147    1.2631415  -0.18891508   0.23412598   0.34129932  0.067551253 
  178700       178639    254.57806    611.20228    1992.9921   0.58113926   0.50393336    1.2582652   -0.1823057   0.24321972   0.35030757  0.092711772 
  178750       178689    269.09517    445.92267    1979.8228   0.58500487   0.46358696     1.260934   -0.1825989   0.22348511   0.33729161   0.08540914 
  178800       178739    235.48465   -2443.0705    1967.8591   0.58856142   0.56673876    1.2644956  -0.17208725   0.26778348   0.39209445  0.078948086 
  178850       178789    271.81405    3792.7919    1959.4064   0.59110044   0.45937202    1.2647753  -0.18856004   0.24677492   0.33069703  0.070460095 
  178900       178839    257.25508   -1129.6937    1954.7393   0.59251174   0.50006821    1.2623323   -0.1712597   0.24460887   0.33414357  0.092575473 
  178950       178889    260.19414    3723.4875    1952.6401   0.59314872    0.4920536    1.2630263  -0.19650639   0.25239744   0.34923307   0.08692948 
  179000       178939    247.74047    -668.2707    1951.0516   0.59363165   0.52823441    1.2623061  -0.17825414   0.26264347   0.36313568  0.080709391 
  179050       178989    245.74753   -370.05312    1952.0429   0.59333019   0.53466085    1.2628273  -0.18271115   0.26963015   0.36144477  0.086297078 
  179100       179039    254.51075   -2777.5379    1953.9463   0.59275219   0.50853323    1.2626657  -0.17710226   0.28184884   0.33523885  0.068547801 
  179150       179089    246.87686    3616.1071    1956.8362    0.5918768    0.5299001    1.2614128  -0.18188112   0.25669321   0.36849019  0.086597818 
  179200       179139    229.10964   -50.409187    1959.9327    0.5909417   0.58364652    1.2625138  -0.18781613   0.29601335   0.38322993  0.092219368 
  179250       179189    278.83728    2950.6943    1962.6171   0.59013344   0.43329314    1.2595067  -0.18606423    0.2558418    0.3035375  0.059978062 
  179300       179239    263.12047   -3036.6346    1965.4895   0.58927101   0.47615451    1.2557981  -0.20213658   0.26570192    0.3467851  0.065804069 
  179350       179289    274.36048    3198.7492    1966.5928   0.58894042   0.43735411    1.2503026  -0.18923064   0.22886347   0.34575242  0.051968868 
  179400       179339    263.56654    607.75815    1967.3642   0.58870949   0.46748381    1.2484492  -0.19235875   0.23897024   0.34988062  0.070991706 
  179450       179389    277.08456    2379.7174    1965.1573   0.58937063   0.42456737    1.2455875  -0.19412003   0.23070548    0.3265598  0.061422119 
  179500       179439    257.02453   -2784.5652    1961.9909    0.5903218   0.48168354    1.2432645  -0.18851874   0.28753103   0.31398929   0.06868196 
  179550       179489    245.21219    179.51273    1959.3185   0.59112694   0.51591382     1.242494  -0.17950293   0.26742338   0.35544935  0.072544016 
  179600       179539    255.19269   -1493.9909    1959.6066   0.59104003   0.49035998     1.246513  -0.18059856   0.25379928   0.34948321  0.067676053 
  179650       179589    251.91806    990.23756    1961.7038   0.59040817   0.50490032    1.2513505  -0.18256993   0.25643492   0.34754877  0.083486565 
  179700       179639    244.77396    1478.6193    1963.2162   0.58995335   0.52926074    1.2545424  -0.18199305   0.26553479   0.37402554  0.071693457 
  179750       179689    257.91007    -1544.103    1965.1482   0.58937335   0.49301707    1.2572219  -0.18648793   0.26111446   0.33919203  0.079198513 
  179800       179739    259.15785    2153.9214    1969.8181   0.58797609   0.49061065    1.2585128  -0.18268525   0.27092799   0.33229523  0.070072684 
  179850       179789    248.28953    1962.8319    1976.9353   0.58585933   0.52047305    1.2561716  -0.13509825   0.26599745   0.32254806  0.067025801 
  179900       179839    278.50111    1401.4143    1993.0298   0.58112828   0.43273946    1.2579569  -0.17959216   0.25629637   0.29085977  0.065175479 
  179950       179889    261.02721     2415.357     2008.919   0.57653195   0.48202311    1.2554643  -0.16132892   0.22219156   0.35424122  0.066919245 
  180000       179939    260.42361   -845.59954    2025.1972   0.57189788   0.48445299    1.2561056  -0.17680776     0.232708   0.36278983  0.065762926 
  180050       179989    261.07033   -757.91295    2038.0427   0.56829329   0.48263274    1.2562017  -0.16820868   0.25861556   0.33098503  0.061240827 
  180100       180039    246.06129   -128.38876    2048.2596   0.56545857    0.5295069     1.258603  -0.16647539   0.25424617   0.37338155  0.068354561 
  180150       180089    258.75967    1185.4394    2055.7437   0.56339998   0.49318837    1.2599106  -0.17113776   0.26732271   0.33865056  0.058352856 
  180200       180139    225.31344    581.91983    2059.0225   0.56250282   0.59659763    1.2642165  -0.14739881   0.29297379    0.3808774  0.070145245 
  180250       180189    229.97972    795.44422    2062.0598   0.56167428   0.58746361     1.268909  -0.14562885   0.33233108   0.33843402  0.062327351 
  180300       180239    243.83479   -4959.7485    2064.0293   0.56113834   0.54880268    1.2713015  -0.16690144    0.3019637   0.34325006  0.070490362 
  180350       180289    251.54907    3656.6019    2063.8888   0.56117654   0.52562831    1.2709851  -0.16535641   0.28902133   0.34099353  0.060969874 
  180400       180339    242.47033   -5102.5861    2063.5153   0.56127812   0.55400599    1.2724619  -0.15703564   0.28712199   0.35316593  0.070753718 
  180450       180389    254.93204    7355.8651     2061.634   0.56179029   0.51958677    1.2749675   -0.1537387   0.26591918   0.34044225  0.066964036 
  180500       180439    253.35639   -5179.4221    2059.5597   0.56235611   0.52392295    1.2746349  -0.16853636   0.25216627   0.36464651   0.07564654 
  180550       180489    287.04527    1410.5391    2053.6108   0.56398515    0.4209534    1.2714878  -0.18058353   0.24477983   0.28175104  0.075006059 
  180600       180539    285.31235   -97.927449    2043.0795   0.56689228   0.42473762    1.2701373  -0.17959928    0.2205676   0.30960959  0.074159706 
  180650       180589    274.80415    1313.2199    2031.2596   0.57019102   0.45604089     1.270304  -0.16925919   0.22454153   0.32669058  0.074067971 
  180700       180639    261.14278   -1364.1596    2020.7831   0.57314711   0.49743302    1.2712166   -0.1753295   0.25589328   0.34613455   0.07073468 
  180750       180689    258.89881   -2419.5209    2012.2212    0.5755858   0.50238569    1.2695202  -0.16161596   0.25601381   0.34478119  0.063206654 
  180800       180739    258.22745   -669.35916    2007.5335   0.57692983   0.50663074     1.271776  -0.17737896   0.27056585   0.34250007  0.070943777 
  180850       180789    255.58831    3696.4801    2008.7169   0.57658995   0.51621432    1.2735396  -0.17467063   0.26690703     0.348274  0.075703927 
  180900       180839    247.31364    813.77753     2014.303   0.57499095    0.5412761     1.274083  -0.15003143   0.25175268   0.37206215    0.0674927 
  180950       180889    244.80963    900.14478    2021.9059   0.57282882   0.55083408    1.2762214  -0.18189356   0.28940988   0.34901274   0.09430502 
  181000       180939    260.90568   -2594.6305    2027.3609   0.57128752   0.50430007    1.2773811  -0.17183953   0.24563213    0.3406394  0.089868081 
  181050       180989    268.71305    2591.4126    2030.8125   0.57031655    0.4817066    1.2779214  -0.17337923   0.25105717   0.33511658  0.068912081 
  181100       181039    247.95471    412.33616    2033.5535   0.56954783    0.5437218    1.2784283  -0.18100999   0.27340521   0.36019319  0.091133391 
  181150       181089    256.28737   -1116.5619    2031.7258   0.57006018   0.52078374    1.2801804  -0.15414368   0.26816361   0.33208691  0.074676898 
  181200       181139    260.10474    1660.4587    2031.3206   0.57017389   0.51166785    1.2823756  -0.16321287   0.29288262   0.31112974  0.070868356 
  181250       181189    248.37302   -2514.2802    2031.2185   0.57020254   0.54846456    1.2844105    -0.161309   0.29147256   0.33759847  0.080702524 
  181300       181239     253.4505    1083.3043     2029.794   0.57060272   0.53370808    1.2846989  -0.18763064   0.29452406   0.36551704  0.061297631 
  181350       181289    256.99632    1320.5573     2025.087   0.57192898   0.51897898    1.2804763  -0.18732531    0.2661203   0.36882382  0.071360176 
  181400       181339     259.0349   -1747.7799    2017.7265   0.57401534   0.50865548    1.2761933   -0.1948146   0.24213398   0.38039198  0.080944124 
  181450       181389    272.15551    1084.0984     2008.058   0.57677914   0.46620217    1.2726172  -0.17175986   0.27137867   0.29647144  0.070111906 
  181500       181439    258.35119    2235.9036    1999.3504   0.57929115   0.50516499    1.2706769  -0.16630714   0.25778239   0.33951308  0.074176659 
  181550       181489    261.96655   -450.15058     1990.131   0.58197474    0.4937499    1.2699744  -0.18565765   0.24770823   0.35042495  0.081274381 
  181600       181539    262.01316    2276.6059    1979.5951   0.58507215   0.49083073    1.2671933  -0.18114973   0.25619931   0.35772366  0.058057474 
  181650       181589    265.74093   -2735.9225    1970.8857   0.58765762   0.47823373     1.265642   -0.1792514   0.25382777   0.33516189  0.068495469 
  181700       181639    274.50422   -1983.2183    1965.5981   0.58923844   0.44888723    1.2622617  -0.19403925   0.22271843   0.33908183  0.081126223 
  181750       181689    263.73431    2858.2023    1959.8423   0.59096896   0.48216999    1.2636325  -0.17441059    0.2136604    0.3670002  0.075919986 
  181800       181739    259.04421    -739.4531     1957.879   0.59156156   0.49923864     1.266804  -0.18776822   0.23036441   0.38223956  0.074402887 
  181850       181789    263.64509    2044.6257    1958.0564   0.59150797     0.488077    1.2692751  -0.19941603   0.25909642   0.35799289  0.070403721 
  181900       181839    272.08011    1399.6826    1955.7442    0.5922073   0.46247128    1.2686629  -0.19219845   0.26929434    0.3242604   0.06111499 
  181950       181889    249.41906   -672.69511    1956.1205   0.59209336   0.52763456      1.26668  -0.18090114    0.3017791   0.33548718  0.071269418 
  182000       181939     253.9757    2535.0577    1958.7483   0.59129902   0.51401034    1.2665574  -0.18207099   0.27819169   0.35525919  0.062630446 
  182050       181989    249.50827   -2684.6259    1964.6083   0.58953531   0.52374794    1.2630577  -0.17969848   0.26494051   0.36171255  0.076793357 
  182100       182039     263.8302    981.81953    1970.7009    0.5877127   0.47827588    1.2600225  -0.20451476   0.24790779   0.34938469  0.085498161 
  182150       182089    263.27997   -1294.8067    1972.3034    0.5872352   0.47686387    1.2569801  -0.19424767   0.24223934   0.36043042  0.068441782 
  182200       182139    258.89296   -1998.6438    1974.5491   0.58656733   0.48700396    1.2541212  -0.20194338   0.25775342   0.34288431   0.08830961 
  182250       182189    275.86975   -1678.0727    1974.2513   0.58665579    0.4363739    1.2537945  -0.20635929   0.24195929   0.32585901  0.074914895 
  182300       182239    257.86623    3222.3293    1970.9067   0.58765134   0.48908112    1.2531561  -0.18248794   0.25184473   0.34382022  0.075904116 
  182350       182289    241.64501     131.7927    1968.5258    0.5883621   0.53694304    1.2529534  -0.18256476   0.25026753   0.37886312  0.090377155 
  182400       182339    259.98528    2380.9864    1963.0461   0.59000446   0.48543871    1.2557925  -0.18221962    0.2442579   0.34265535  0.080745078 
  182450       182389    281.12089   -3669.1003    1958.0976   0.59149553   0.42141566    1.2543957  -0.20996142   0.24494029    0.3210725  0.065364296 
  182500       182439    268.08125    1648.2606    1950.1488   0.59390646    0.4622685    1.2566112   -0.2042923   0.25577306   0.31555063  0.095237109 
  182550       182489    264.40963   -1514.5638    1940.5496   0.59684431   0.47324677    1.2567102  -0.19725125    0.2544658   0.34784944  0.068182779 
  182600       182539     265.0291   -1024.8114    1933.3789   0.59905792   0.47147703     1.256776  -0.20626563   0.23167069   0.37205708  0.074014884 
  182650       182589    252.75489   -275.15249    1923.5249   0.60212683   0.50920315    1.2581329  -0.19224843   0.24919039   0.36813727  0.084123923 
  182700       182639    263.99881   -3233.2092    1918.2816   0.60377264   0.47913125    1.2613774  -0.20287288   0.27279126   0.34577067  0.063442193 
  182750       182689    263.41611    1734.8526    1915.1826   0.60474964   0.48123279    1.2617524  -0.20549234   0.26816013   0.36075129  0.057813717 
  182800       182739    266.14273    58.400566    1913.7298   0.60520873   0.46893426     1.257533  -0.20657936   0.25630236   0.35096213  0.068249133 
  182850       182789    260.03727     728.0257    1914.2684   0.60503846   0.48103463    1.2515425  -0.20389067   0.25301329    0.3672586  0.064653413 
  182900       182839     262.5599    2029.1302     1913.839   0.60517418    0.4683808    1.2463634  -0.18328195   0.22692438   0.36278426  0.061954099 
  182950       182889    279.18473    1038.4995      1917.79   0.60392743   0.41603757    1.2432807  -0.19651844   0.20028036   0.34593612  0.066339535 
  183000       182939    249.95492   -1010.7082     1922.488   0.60245161   0.50336739    1.2440006  -0.17602322   0.24719115   0.34855645  0.083643005 
  183050       182989    258.28299    4037.3255    1927.6221     0.600847   0.48463028    1.2499401   -0.1933304   0.23104916    0.3707515  0.076160025 
  183100       183039    259.59883    244.08646    1934.0774   0.59884157   0.48180258    1.2510113  -0.21817726   0.25207559   0.37137079  0.076533462 
  183150       183089    250.34427   -223.47927    1935.0597   0.59853758   0.50995979    1.2517467  -0.19244419   0.25241929   0.37935141  0.070633286 
  183200       183139    266.23816     3234.079    1937.8024   0.59769043   0.46212714    1.2510087   -0.2123038   0.26557786   0.35770257  0.051150518 
  183250       183189    232.97796   -6815.6421    1939.2991   0.59722915   0.55851018    1.2488395  -0.18449921   0.30812484    0.3701874  0.064697153 
  183300       183239    250.27395    9828.3653    1943.5248   0.59593065   0.50555412    1.2471326  -0.17406778   0.27064784   0.35441829   0.05455577 
  183350       183289     255.9146     -6791.26     1951.159   0.59359896   0.48641329    1.2447054  -0.20353883   0.26376455   0.36783082  0.058356734 
  183400       183339    252.07171    2047.8596    1954.0319   0.59272622   0.49561954    1.2425249  -0.19894638   0.28252752    0.3510103  0.061028092 
  183450       183389    261.06751   -5538.3785    1955.8373    0.5921791   0.46700666    1.2405672  -0.19736969    0.2516342   0.35367667  0.059065482 
  183500       183439    260.04781   -2727.8927    1956.5444    0.5919651   0.46907427    1.2396134  -0.20449311   0.22195517   0.39089424  0.060717969 
  183550       183489    239.47073    7529.3201    1954.5461   0.59257029   0.53036419     1.239932  -0.16026469   0.22558832   0.38771482   0.07732574 
  183600       183539    252.73482   -1965.3857    1958.4092   0.59140142   0.49560758    1.2444778  -0.20520986   0.22735083   0.39748692   0.07597969 
  183650       183589    245.30376    5413.3371    1959.1849   0.59116726   0.52171211    1.2485636  -0.18176732   0.23598883   0.37890413  0.088586472 
  183700       183639    259.89807   -2268.6652    1962.4224   0.59019198   0.48139985    1.2514953  -0.21455862   0.23383533   0.38287776  0.079245379 
  183750       183689    250.98224    3584.5567    1964.2755    0.5896352   0.50822745    1.2519047  -0.19030193   0.24032887   0.39130906  0.066891445 
  183800       183739    259.98214    1596.4216    1966.6908   0.58891106   0.48312179    1.2534663  -0.20771397   0.24293926   0.37026694  0.077629563 
  183850       183789    249.29776    -1861.458    1966.9231   0.58884152   0.51577216    1.2544582  -0.19485266   0.27459584   0.36104266  0.074986319 
  183900       183839    242.70434   -6401.0851    1964.3962   0.58959897   0.53172909    1.2508783  -0.20032919   0.29420619   0.36909964  0.068752454 
  183950       183889    258.73642   -1272.7758    1959.1798    0.5911688     0.479291    1.2459444  -0.19210042   0.25234331   0.35450883  0.064539289 
  184000       183939    259.42405    1739.6163    1953.9571   0.59274892   0.47405313     1.242744  -0.20816235   0.24810031   0.35613622  0.077978952 
  184050       183989    255.91401   -679.68723    1949.5878   0.59407737   0.48315059     1.241441  -0.19238998   0.23963476   0.36407933   0.07182648 
  184100       184039    264.55626    4421.6276    1948.9997   0.59425661   0.45539029    1.2392883  -0.19093322   0.22966307   0.34917515   0.06748528 
  184150       184089     252.1894   -3552.6203    1951.2524   0.59357057   0.49163036    1.2388845  -0.20035853   0.21902897   0.39818296  0.074776964 
  184200       184139    277.66883    7192.0047    1955.1295   0.59239348   0.41463875    1.2373901  -0.19852448   0.25074206   0.29233637  0.070084803 
  184250       184189    259.07883   -3673.9636    1962.0533   0.59030303   0.46922207      1.23689  -0.19315431   0.24401648   0.35713115  0.061228751 
  184300       184239    268.77996    4078.4905    1972.8984   0.58705809   0.43918757    1.2356006   -0.1900658   0.23094816   0.32746996  0.070835253 
  184350       184289     268.2548   -7270.1453    1987.8276   0.58264909   0.44252475    1.2373817  -0.21120659   0.25239844   0.33719473  0.064138167 
  184400       184339    270.34186    1456.6433    1997.7086   0.57976722   0.43458951    1.2356306  -0.19671023   0.22897089   0.33240187  0.069926976 
  184450       184389     259.7482    1671.8717    2004.8958   0.57768885   0.46713623    1.2367876  -0.18209124   0.26273073   0.31527588  0.071220861 
  184500       184439    261.16837   -24.896996    2011.3181   0.57584425   0.46512115    1.2389806  -0.18254039   0.23657471   0.35080051  0.060286316 
  184550       184489    235.19472    3946.0497    2015.9217   0.57452925   0.54659745    1.2434952  -0.17973567   0.26226001   0.38395569   0.08011742 
  184600       184539    248.33762    -4326.575    2021.0648    0.5730672   0.51385622    1.2496973  -0.16993258    0.2584112   0.36132901  0.064048593 
  184650       184589    262.30653    2789.0768    2023.8446    0.5722801   0.47431294    1.2515448  -0.18885717   0.27128253   0.32319428  0.068693303 
  184700       184639    243.79622   -1104.3089    2023.3396   0.57242292   0.53273268    1.2551173  -0.16704406   0.27095838   0.33499549  0.093822863 
  184750       184689    264.90354    479.60241    2021.9834   0.57280688   0.47339845    1.2583254  -0.17554534   0.24240714   0.33753771  0.068998935 
  184800       184739    270.04467   -2319.4531    2018.3074   0.57385013   0.45988573    1.2600462  -0.17582715    0.2321197   0.32173916  0.081854026 
  184850       184789    268.19049   -3944.0512      2013.39   0.57525166   0.46472355      1.25939  -0.18881441   0.24176714   0.34863719   0.06313363 
  184900       184839    270.41177   -1098.4759    2005.5064   0.57751297   0.45418221    1.2554304  -0.20459217   0.27162654   0.33002469  0.057123147 
  184950       184889    255.44644    1912.4285    1995.6598   0.58036242   0.49311543    1.2500204  -0.19642061   0.25585229   0.36269804  0.070985715 
  185000       184939     260.2767   -1380.1134     1986.899   0.58292141   0.47358309    1.2448004  -0.20408528   0.24617564   0.35344435   0.07804838 
  185050       184989     244.5324    4306.4504    1981.2723   0.58457686    0.5234644    1.2480303  -0.19563718   0.28491956    0.3464881   0.08769392 
  185100       185039    239.46332   -24.486927    1983.7307   0.58385241    0.5404099    1.2499558  -0.17187833   0.28157416   0.35724654  0.073467518 
  185150       185089    268.26531    3010.5761    1995.5249   0.58040166   0.45587269    1.2507608  -0.20863611    0.2515346   0.33866605  0.074308156 
  185200       185139    244.36527    1724.2808     2009.084   0.57648459   0.52440013    1.2484708  -0.19569988   0.27107145   0.37899131  0.070037242 
  185250       185189    254.06789   -44.571803    2026.3013   0.57158625   0.48755603    1.2403763  -0.18528947   0.24962278   0.33692551  0.086297208 
  185300       185239    258.88335    1621.3884    2044.5454   0.56648581   0.47229647    1.2393852  -0.17345927   0.24565459   0.32746302  0.072638136 
  185350       185289    255.85021   -1669.4247    2064.1037   0.56111811   0.48143092    1.2395323  -0.19125417    0.2393131   0.34870503  0.084666966 
  185400       185339    263.39763    2169.0284    2080.0497    0.5568165   0.46266039    1.2431252  -0.18583721   0.24402412   0.34099493  0.063478559 
  185450       185389    261.54319    3070.6342     2090.829   0.55394581   0.46976779    1.2447378  -0.16307823   0.23934168   0.31731332  0.076191014 
  185500       185439    258.70426   -3763.3692    2099.7763   0.55158541   0.48184398    1.2484021  -0.19197084   0.28254311    0.3131981  0.078073605 
  185550       185489    248.99031     1475.914    2102.1806   0.55095455   0.51350619    1.2512812  -0.15886263   0.25440692   0.34638297  0.071578929 
  185600       185539    250.47529    1966.3149    2105.3863   0.55011566   0.51312887     1.255304  -0.15915238   0.25045723   0.34786369  0.073960324 
  185650       185589    240.63184    236.83122    2110.0494   0.54889994   0.54833215    1.2613404  -0.17112898   0.27120769   0.38331796  0.064935478 
  185700       185639     249.7733   -854.51533    2113.6003   0.54797778   0.52412572    1.2642208  -0.17565573   0.26457709   0.35864568  0.076558681 
  185750       185689     245.8141   -231.07643    2118.3384    0.5467521   0.53734116    1.2657048  -0.16119118    0.2737282   0.35816459   0.06663955 
  185800       185739    239.04607   -1155.0815     2121.658   0.54589664   0.56083829    1.2691478  -0.16919565   0.27151436   0.38276904  0.075750534 
  185850       185789    249.96336    3470.5095    2122.9881   0.54555462   0.53068526    1.2713435  -0.14331874   0.25343063    0.3547949  0.065778474 
  185900       185839    261.05017   -2090.7408     2125.029   0.54503066   0.50055524    1.2740644   -0.1687744    0.2609725   0.33599253  0.072364615 
  185950       185889    265.23492   -213.93207    2125.0439   0.54502686   0.48788764    1.2737965  -0.17792447   0.24530388   0.34655963  0.073948598 
  186000       185939    275.45262   -3090.7021    2122.3695   0.54571362   0.45611496    1.2722996  -0.16995668   0.23548439    0.3342497  0.056337554 
  186050       185989    280.57767    2392.9468     2117.069   0.54707995   0.44092368    1.2722942  -0.17504763   0.19984576   0.34502495  0.071100597 
  186100       186039    260.21292    2235.9626    2110.7432    0.5487195   0.50072616    1.2717545  -0.15614128   0.23830818   0.35951646  0.059042795 
  186150       186089    254.69363   -2363.8547    2105.3662   0.55012092   0.51805184    1.2727262  -0.17392612    0.2662858   0.35480978  0.070882382 
  186200       186139    251.68548    2655.4927    2098.1086   0.55202384   0.53087507     1.276636  -0.14522416   0.24049216   0.35544669   0.08016037 
  186250       186189    257.64137    -3954.899    2095.5016   0.55271061   0.51742279    1.2808315  -0.17539367   0.27903082   0.35063449  0.063151148 
  186300       186239    251.81925    4700.1113    2091.1953   0.55384879   0.53830103    1.2844584  -0.14783905   0.27313664   0.34821332  0.064790113 
  186350       186289    248.23742    253.83814    2089.9062   0.55419041   0.55065592    1.2862001  -0.17094473   0.28826225   0.36705224  0.066286174 
  186400       186339    254.56934   -4423.0132    2090.9071   0.55392512   0.53364289    1.2879489  -0.17327071   0.30458098   0.34177946  0.060553171 
  186450       186389    239.88483    478.42654    2087.3634   0.55486551   0.57538573    1.2861806  -0.15689607   0.28150446   0.37547972  0.075297632 
  186500       186439    268.31922   -3424.9815    2081.6013   0.55640143   0.48891926    1.2839671  -0.18596304   0.26234299   0.33938228  0.073157033 
  186550       186489    270.52912    102.00253    2069.1152   0.55975906   0.48024363    1.2818396  -0.17237167   0.26466513   0.32770255  0.060247626 
  186600       186539     265.3062    2038.1057    2053.0321    0.5641441   0.48872281    1.2748429   -0.1772968   0.26192869   0.34578544   0.05830548 
  186650       186589    272.68241   -7373.3314    2039.0901   0.56800136   0.46593913    1.2739154   -0.1948423   0.25267557   0.34380297  0.064302886 
  186700       186639    260.64853    5312.4743    2022.6499    0.5726181   0.50112813    1.2734472  -0.17369015    0.2318272   0.36381125  0.079179831 
  186750       186689    255.15507   -2569.3267       2009.7    0.5763079   0.51685347    1.2728951  -0.17888826   0.25000036   0.36217636   0.08356501 
  186800       186739    271.07983    2196.4904    1996.6311   0.58008009   0.47263138    1.2758591  -0.17332548   0.24902028   0.33713278  0.059803804 
  186850       186789    254.98446    813.23303    1984.4039   0.58365435   0.51788264    1.2734187   -0.1804921   0.24821614   0.35145145  0.098707149 
  186900       186839     268.7057   -5068.8759    1972.0822   0.58730106   0.47706195     1.273255  -0.17799944   0.26788295   0.31176226  0.075416176 
  186950       186889    257.49225    4226.5448    1959.6805   0.59101776   0.51259867    1.2755655  -0.16153735   0.27191308   0.34976244  0.052460493 
  187000       186939    254.05822   -2328.6885    1951.9534   0.59335737   0.51839314    1.2711847  -0.18649092   0.26621064   0.35507045  0.083602969 
  187050       186989    272.87247    3128.2071    1944.3152   0.59568837   0.46173443    1.2702739  -0.17013133   0.22535566   0.34670292  0.059807182 
  187100       187039    267.04623   -293.68135    1941.3668   0.59659307   0.47875339    1.2700293   -0.1766538    0.2587225   0.31836777  0.078316933 
  187150       187089     236.0014   -413.54346    1944.4278   0.59565387   0.57323336    1.2725213  -0.16732085   0.28893801   0.38729607  0.064320132 
  187200       187139    248.82443    3088.2811    1949.4459    0.5941206   0.53244582    1.2697293  -0.19611337   0.26806537   0.38211147   0.07838235 
  187250       187189    252.77324   -601.28491    1952.8806   0.59307566   0.51647901    1.2654631  -0.17921086   0.24446676   0.37921422  0.072008885 
  187300       187239    266.26903    330.66786    1954.0114   0.59273246   0.47260657    1.2615796  -0.19495657    0.2527371   0.34713151  0.067694529 
  187350       187289    265.26706    1814.9227    1953.8805   0.59277215   0.47232194    1.2583261  -0.18945831   0.22945164   0.35348551  0.078843085 
  187400       187339    267.63281   -3414.9319    1954.2221   0.59266854    0.4654976    1.2585116  -0.19753967   0.25188806   0.33015347  0.080995736 
  187450       187389    267.50658    5706.3887    1953.1394   0.59299709   0.46633402     1.258974  -0.16457185    0.2392002   0.32886626    0.0628394 
  187500       187439    251.97869   -3868.4837    1954.6783   0.59253024   0.51081899    1.2574488   -0.1873239   0.26635075    0.3551046  0.076687533 
  187550       187489    266.91905   -6347.5325    1956.1035   0.59209851   0.46308142    1.2539805  -0.19485854   0.27696437   0.30912405  0.071851549 
  187600       187539    262.56528    1399.4494    1956.9832   0.59183236   0.47501156    1.2530101  -0.18884837   0.24109375   0.35418584  0.068580339 
  187650       187589    256.14386   -1685.9825    1958.1145   0.59149043   0.49047369    1.2494452  -0.19863842   0.22641728   0.37371125  0.088983593 
  187700       187639    265.61883    4552.6855    1955.8843   0.59216487   0.46225843    1.2493049  -0.18122148   0.23748857   0.33772549   0.06826585 
  187750       187689    247.13874    71.355871    1954.6663   0.59253385   0.51624513    1.2485338  -0.19309298   0.27329547     0.381459  0.054583636 
  187800       187739    256.33729    1013.8324    1954.1298   0.59269654   0.48813834    1.2476829  -0.19281913   0.24652847   0.36167419  0.072754815 
  187850       187789    273.48665    6991.8056    1952.9385   0.59305808   0.43738303    1.2477423  -0.18422439   0.23403584   0.32093233  0.066639253 
  187900       187839    255.32918   -125.93538     1954.728   0.59251516   0.49295174    1.2495092  -0.19811755    0.2458906   0.35607065  0.089108039 
  187950       187889     271.8681    642.13908    1955.0883   0.59240596   0.44740274    1.2529662  -0.18011583    0.2524285   0.31185662  0.063233446 
  188000       187939    273.50545   -6309.4001     1956.206   0.59206748   0.44313673    1.2535517  -0.19824827   0.25571855   0.32554702  0.060119438 
  188050       187989    258.39073   -428.48555    1954.9718   0.59244127   0.48677754    1.2524066  -0.18889154   0.28832023   0.30884192  0.078506927 
  188100       188039    261.81067   -4734.3883    1952.1793   0.59328874   0.47824059    1.2540032  -0.18866824   0.29276436   0.28661275  0.087531733 
  188150       188089    267.18602    847.81082     1947.916   0.59458723   0.46139977    1.2530899  -0.20220138   0.25432519   0.32983853  0.079437436 
  188200       188139    251.39529     1231.127    1940.3538   0.59690452   0.50866389     1.253565  -0.18252484   0.29659014     0.312392  0.082206596 
  188250       188189    269.45156   -4447.2756    1931.8284   0.59953875   0.45260089     1.251004  -0.21884133   0.23416829   0.36089819  0.076375739 
  188300       188239    259.97869    2433.2093    1918.5758   0.60368008   0.47829829    1.2486326  -0.20298211   0.20694165   0.39848226  0.075856489 
  188350       188289    256.26684    4168.9398    1904.8664   0.60802478   0.48911409      1.24845   -0.2016794    0.2437933   0.37176808  0.075232099 
  188400       188339    278.14443   -5138.9145    1892.8712   0.61187786   0.42205373    1.2462144  -0.21318488   0.21796363   0.35463387  0.062641106 
  188450       188389    274.05259    3865.0718    1879.2743    0.6163049   0.43224927    1.2442855  -0.21036171   0.21281362    0.3459304  0.083866954 
  188500       188439    255.09433   -4610.5706    1867.3512   0.62024003   0.48792886    1.2437905  -0.21295182   0.26697414   0.35193628  0.081970263 
  188550       188489    247.64358    1533.1853    1858.4516   0.62321018   0.51442203    1.2482066  -0.21057055   0.27223039    0.3681813  0.084580888 
  188600       188539    251.35997    3935.4454      1852.22   0.62530691   0.50444223    1.2492387  -0.20385691   0.28711241   0.32183076  0.099355972 
  188650       188589    264.26283   -6110.4234    1850.6845   0.62582571    0.4662573    1.2492858  -0.22722411   0.27101758   0.34156295   0.08090088 
  188700       188639    243.12143    5888.6375    1849.0859   0.62636679   0.52816282    1.2485479  -0.20419499   0.25473858   0.38870915  0.088910079 
  188750       188689     256.3411   -1528.0196    1851.1045   0.62568373   0.48439924    1.2439551   -0.2238894   0.25725941   0.34881215   0.10221708 
  188800       188739    257.96785    2156.6249    1850.6274   0.62584503   0.47508254    1.2394586  -0.19968108   0.25790144   0.34109706  0.075765113 
  188850       188789     272.0296    642.59796    1851.5885   0.62552016   0.42858869    1.2346306  -0.20341142   0.23860381   0.30484953  0.088546774 
  188900       188839    272.07552    2066.3813    1853.7497   0.62479092   0.42738597     1.233564  -0.22666956   0.21642661   0.33246952    0.1051594 
  188950       188889    268.84815    86.246713    1852.2728   0.62528908   0.43381939    1.2304345  -0.21297749   0.22935099   0.35340169  0.064044196 
  189000       188939    269.00674   -227.20142    1848.9644   0.62640793   0.43082654    1.2279116  -0.22264409   0.25366867    0.3274916   0.07231036 
  189050       188989    248.35969   -3566.7088    1845.2796    0.6276588   0.49341597    1.2293224  -0.21531323   0.26917442   0.35126399  0.088290799 
  189100       189039    237.60585    5287.5131    1843.6781   0.62820399   0.52714658    1.2311887  -0.19051537   0.29377363   0.33872316  0.085165162 
  189150       189089    242.80964   -2711.5078    1844.8859   0.62779275   0.51257677     1.232038  -0.21212523   0.28697448   0.33309773   0.10462979 
  189200       189139    241.66109     2083.119     1845.535   0.62757193   0.51873008    1.2347881  -0.19983665   0.30457152   0.33401343  0.079981777 
  189250       189189    239.39921    3426.1404    1848.4298   0.62658911   0.52723445    1.2365904  -0.20613881     0.270415   0.35433132   0.10862693 
  189300       189239    235.83955   -359.70891    1853.5018   0.62487448   0.53935557     1.238164  -0.17769921   0.28839301   0.33158109  0.097080675 
  189350       189289    276.03422    5674.1296     1861.924   0.62204794   0.42088592    1.2387938  -0.19804321   0.23656476   0.31140012  0.070964255 
  189400       189339    276.10753   -4594.3405    1870.3766   0.61923678   0.41824619    1.2363714  -0.22167142    0.2152083   0.35453148   0.07017783 
  189450       189389    275.47933    2511.8307    1873.6006   0.61817123   0.41683987    1.2331036  -0.20681371   0.24267686   0.29898771  0.081989011 
  189500       189439    266.34336   -3548.0067    1874.2198   0.61796698   0.44303546    1.2322287  -0.22095159   0.22908948   0.32569826   0.10919931 
  189550       189489    269.90989   -95.961376    1870.6655   0.61914113   0.43694343    1.2367046  -0.19587694   0.23095679    0.3240891  0.077774488 
  189600       189539    278.51153    1537.8386    1868.4261   0.61988323   0.41557136    1.2408197  -0.21086796   0.22922564   0.30274049  0.094473197 
  189650       189589    253.59938   -5661.0243    1864.7299   0.62111191   0.49255624    1.2439882  -0.22126698   0.29448831   0.30854514   0.11078976 
  189700       189639    264.70404    1203.1224    1857.3609   0.62357616   0.46141535    1.2457512  -0.21974157   0.30788813   0.28667128  0.086597503 
  189750       189689    241.20531   -2136.6452    1849.4387    0.6262473   0.53058255    1.2452901  -0.20855426   0.31503839   0.34125602  0.082842401 
  189800       189739    267.19028    3705.4531    1843.0619   0.62841403   0.45184614    1.2435489  -0.22044803   0.25717078   0.33375611   0.08136729 
  189850       189789    265.25303   -1049.3698    1837.1115   0.63044948   0.45482707    1.2407896  -0.22604508   0.25769114   0.34050655  0.082674471 
  189900       189839    252.47881   -56.789586    1832.9815   0.63186997   0.49106592    1.2391776  -0.23394487   0.27529955   0.34480001   0.10491123 
  189950       189889    260.41078   -3223.3594    1826.6002   0.63407744   0.46975299    1.2413676  -0.22391141   0.27370389    0.3178926   0.10206791 
  190000       189939     253.3722    3147.2485    1821.1759   0.63596599   0.49018605    1.2409449  -0.20391815   0.30787616   0.29959302  0.086635028 
  190050       189989    261.73789    -4490.348    1818.5082   0.63689896   0.46618081    1.2417277  -0.23733658   0.31304354   0.30349042  0.086983426 
  190100       190039    281.93382    1077.1667    1815.1092   0.63809163   0.40257449    1.2379633  -0.23651146   0.22547656   0.34553391  0.068075476 
  190150       190089    264.69419   -4234.1829    1810.7331   0.63963373   0.44488909    1.2291957  -0.23407259   0.21845444   0.35958409   0.10092315 
  190200       190139    276.78744     2233.793    1802.0194    0.6427267   0.40712976    1.2272695  -0.23284873   0.23353045   0.31529519  0.091152854 
  190250       190189    261.92823    4354.0895    1793.0768   0.64593218   0.45143563    1.2275465  -0.22908142   0.27700504   0.32053478  0.082977226 
  190300       190239    269.47855   -1772.6604    1785.0945   0.64882054   0.42721142    1.2256945  -0.25282909   0.27099579   0.31737394  0.091670796 
  190350       190289    272.56411   -228.89252    1775.5817   0.65229665   0.41423582    1.2218616  -0.23994772   0.24967594   0.33727586  0.067231735 
  190400       190339    264.84203      -683.57    1767.5153   0.65527352   0.43440141    1.2191461  -0.23156648   0.23830669   0.34094541  0.086715791 
  190450       190389    261.32807     2062.147     1761.582    0.6574806   0.45077984    1.2251124   -0.2387388   0.29474296    0.3256756  0.069100075 
  190500       190439    243.51388    1428.0827    1757.3217   0.65907455   0.50269858    1.2242466    -0.239535    0.3359138   0.31199058  0.094329197 
  190550       190489    271.15681    1186.0247    1756.4454   0.65940333   0.41829798    1.2217538  -0.22678139   0.24581097   0.33222786  0.067040541 
  190600       190539    266.44876   -4992.3742    1759.2852   0.65833895   0.42716717    1.2166727  -0.24296863    0.2524664   0.33198633  0.085683071 
  190650       190589     280.3029    3059.3701     1762.541   0.65712285   0.38240455    1.2129609  -0.25194398   0.25957304   0.29765053  0.077124958 
  190700       190639     273.4593    3839.4675    1766.2047   0.65575976   0.39979852    1.2100768  -0.23798028   0.23559702   0.33687825  0.065303531 
  190750       190689    268.69488    432.75557    1772.9025   0.65328239   0.41088343    1.2070444   -0.2467885   0.23131142       0.3532  0.073160512 
  190800       190739     250.7566     2091.826    1781.3646   0.65017908   0.46218489    1.2051935  -0.25024885   0.27620755    0.3547325  0.081493695 
  190850       190789    260.46732     -2591.34    1789.6814   0.64715761   0.43091052    1.2026927  -0.24035943   0.25246769   0.33854059  0.080261665 
  190900       190839    255.49375    2475.2577    1799.6467   0.64357409   0.44532017    1.2023653  -0.21621376   0.26194373   0.31393112  0.085659088 
  190950       190889    252.57877    1089.4763    1813.1478    0.6387819   0.45796661    1.2063745  -0.23162257   0.26592537   0.34992767   0.07373614 
  191000       190939    277.88384    2997.8801    1825.0303   0.63462286   0.38227876    1.2056672  -0.24526895   0.26845929   0.29868063  0.060407781 
  191050       190989    238.68569   -5305.2303    1833.8399   0.63157421   0.49651555    1.2037573   -0.2380991   0.26162039    0.3972308   0.07576346 
  191100       191039    273.27842    2102.7023    1842.3213   0.62866666   0.39457757    1.2043199  -0.24359127    0.2538949   0.30386156  0.080412373 
  191150       191089    266.87596    2090.0143    1850.1119   0.62601942    0.4144387    1.2052101   -0.2300996    0.2512823    0.3263247  0.066931302 
  191200       191139    245.38561    3736.1479    1862.6158   0.62181691   0.47908714    1.2061812  -0.22931748   0.27087458   0.37100439  0.066525644 
  191250       191189    242.74954     4239.431    1878.2368   0.61664533   0.48815719    1.2074404  -0.21675782   0.28649589     0.346623  0.071796121 
  191300       191239    239.20867   -4087.9089    1896.1039   0.61083465   0.50179135    1.2105827  -0.21773249   0.25423436   0.38424916  0.081040311 
  191350       191289    275.59165    944.90685    1912.9152   0.60546646   0.39268256    1.2092791  -0.21643498   0.24540539   0.30657634  0.057135808 
  191400       191339    267.85282    1549.4097     1925.141   0.60162138   0.41559493    1.2092608  -0.20557167    0.2305512   0.33077656  0.059838831 
  191450       191389    254.98165    2046.4224    1931.8939   0.59951842   0.45809801    1.2136258   -0.2129229   0.24313703   0.35240854  0.075475352 
  191500       191439     261.9387   -3630.0799    1930.3428   0.60000015   0.43937215    1.2155141  -0.21278527    0.2606741   0.33233445  0.059148878 
  191550       191489     258.5118   -3471.5369    1923.3339   0.60218663   0.44920229    1.2151901  -0.20191468   0.21486398   0.36647548  0.069777511 
  191600       191539    280.15362    1449.3439    1914.6148   0.60492897    0.3883897    1.2185037    -0.200527   0.20858073   0.31133407  0.069001914 
  191650       191589    255.19732    -2512.888    1904.3299   0.60819608   0.47162436    1.2277912  -0.21277941   0.28837224   0.33888499  0.057146538 
  191700       191639    248.43145    5139.6128     1894.439   0.61137147   0.49330381    1.2294229  -0.19776029   0.26830903   0.34969878  0.073056287 
  191750       191689    236.12275   -6872.2207    1887.0174   0.61377599   0.53349169    1.2331393  -0.20401089   0.29786217   0.36457706  0.075063351 
  191800       191739    252.78499    1254.9891    1881.6312   0.61553293   0.48698542    1.2360043  -0.18424711   0.24477997   0.35635405  0.070098501 
  191850       191789    271.74191   -1154.4528    1882.0505   0.61539581   0.43288153    1.2380711  -0.21916555    0.2117976    0.3614384  0.078811077 
  191900       191839    256.17996    7508.1362     1881.551   0.61555917   0.48183146    1.2409099  -0.20740796   0.23446214   0.38870107  0.066076199 
  191950       191889    252.01727   -4058.3714    1881.8668   0.61545587   0.49208387     1.238828  -0.23496384   0.28297363    0.3635123  0.080561784 
  192000       191939    256.24442     5003.333    1880.0908   0.61603727   0.47926726    1.2385367  -0.19064328   0.23129691   0.37520408  0.063409556 
  192050       191989    260.95472    -5056.414     1881.882    0.6154509   0.46850568     1.241732  -0.21034343   0.24498703   0.35932369  0.074538384 
  192100       192039    264.31742    9552.4259    1885.5134   0.61426557   0.45948164    1.2426719  -0.22052165   0.26938257   0.34126159  0.069359127 
  192150       192089    245.52757   -3572.3384    1888.3533   0.61334178   0.51537891    1.2428936   -0.2152083   0.32392264   0.33137665  0.075287925 
  192200       192139      252.596    428.28542    1892.0555   0.61214164   0.49337962    1.2418385  -0.20859605   0.30439675   0.33935217  0.058226755 
  192250       192189    241.55815   -3788.0115    1896.7878   0.61061442   0.52465468    1.2404077  -0.20742076   0.28461355   0.35740163  0.090060266 
  192300       192239    268.72046   -4579.9812    1899.6416    0.6096971   0.44366192    1.2398987  -0.20743034   0.24401565   0.33813006  0.068946545 
  192350       192289    246.50035    5212.9782    1900.9922   0.60926393   0.51141128    1.2418084  -0.20650746   0.25862816   0.37208945   0.08720112 
  192400       192339    252.36534    -1570.654    1900.3334   0.60947513   0.49506779    1.2428432  -0.19673216   0.23420583   0.38712009  0.070474027 
  192450       192389    271.23831   -526.72527    1899.9019   0.60961357    0.4376247     1.241322  -0.20467551   0.23304925   0.34630195   0.06294901 
  192500       192439    268.39723    489.42268    1898.1654   0.61017127   0.44591404     1.241193  -0.20887321    0.2298416   0.36286647  0.062079187 
  192550       192489    271.17358    280.30981    1893.7232   0.61160258   0.43861932    1.2421248  -0.21252729   0.18029684   0.40039498  0.070454784 
  192600       192539    253.82203    2068.8112    1887.5875   0.61359062   0.48970155    1.2417933   -0.2145191   0.22694421   0.39581189  0.081464547 
  192650       192589    241.21188    1047.1824     1880.454   0.61591825    0.5333445    1.2480715  -0.19840437   0.28541075   0.37325949   0.07307863 
  192700       192639    246.09549   -4153.9626    1874.6313   0.61783135   0.51987248    1.2490699  -0.22610583   0.30525529   0.36725951   0.07346351 
  192750       192689    253.00962   -2580.1248    1865.3079   0.62091947   0.49586646    1.2455509  -0.21612484   0.27079232   0.34785053  0.093348448 
  192800       192739    281.48826    609.70968     1855.933   0.62405593   0.41047096    1.2445396  -0.23722813   0.24487275   0.34116264  0.061663708 
  192850       192789    271.09787   -102.36083    1845.4819   0.62758998   0.43650391    1.2397851  -0.21556544   0.25274879   0.32638319  0.072937376 
  192900       192839    266.38756    1183.5442    1836.9448   0.63050668   0.44698897    1.2363132  -0.22829013   0.24055546   0.36553577  0.069187862 
  192950       192889    264.60878   -6462.4949    1830.0289   0.63288946   0.44861476    1.2326683  -0.19483135   0.24017451   0.32386735  0.079404239 
  193000       192939    260.74081    3843.0691    1827.1653   0.63388134   0.46099091    1.2335834  -0.22281696   0.23151549   0.35786399  0.094428382 
  193050       192989     273.5357    1180.6727    1826.3164   0.63417598   0.42363881    1.2341435  -0.21342344   0.20577124   0.33768825   0.09360277 
  193100       193039    259.84036    2006.7453    1826.3448    0.6341661   0.46645023    1.2363747   -0.2327446   0.26133663   0.34882453  0.089033669 
  193150       193089    265.73624    1677.9993      1826.74   0.63402891   0.44739372     1.234788  -0.20150795   0.25265592   0.32818723  0.068058514 
  193200       193139    261.33712    2753.4216    1831.1253   0.63251051   0.45765471    1.2320141  -0.22076674   0.23771873   0.36804668  0.072656039 
  193250       193189    253.07382    903.72089    1837.6808   0.63025416   0.47891294    1.2287877  -0.21849898    0.2368053   0.35390628   0.10670033 
  193300       193239    275.58696   -1164.9501    1842.9041   0.62846784   0.41295459    1.2295373  -0.19937423     0.222942    0.3274396  0.061947222 
  193350       193289    254.67532    2909.7636    1849.1559   0.62634307   0.47455956    1.2291796  -0.20054073   0.23623901   0.35265157  0.086209705 
  193400       193339    268.26455   -2661.5399    1855.6563   0.62414898   0.43410138    1.2289873   -0.1978378   0.26117193    0.3059129  0.064854347 
  193450       193389    263.54466     149.2421    1864.1189   0.62131551   0.44986622    1.2307667  -0.19314385   0.23463969   0.33565189  0.072718492 
  193500       193439    260.32118    466.29967    1872.8434   0.61842114   0.46068191    1.2320311  -0.17985882   0.24008508   0.32184685  0.078608802 
  193550       193489     249.0778   -998.88558    1882.3694   0.61529154   0.49771209    1.2357463  -0.20140386   0.25571529   0.36029214  0.083108514 
  193600       193539     266.2762    1287.4522    1888.3401   0.61334608   0.44730214    1.2362964  -0.20383205   0.25064672   0.32820221  0.072285259 
  193650       193589    256.34269   -1806.4632    1891.6904    0.6122598   0.47662527    1.2361859  -0.21184498   0.24021925   0.36171292  0.086538085 
  193700       193639    262.33683    1697.5399    1890.6311   0.61260285   0.45871184    1.2360335  -0.19281216   0.23550489   0.33120516  0.084813951 
  193750       193689    279.85146    395.79621    1886.1653   0.61405327   0.40480271    1.2340214  -0.23138567   0.21763214   0.34823934   0.07031689 
  193800       193739    272.56375    595.12129    1876.0425   0.61736658    0.4197904    1.2274151  -0.21382916   0.23523204   0.32758767  0.070799861 
  193850       193789    269.42566   -3405.9988    1865.1775   0.62096287   0.42299044    1.2213168  -0.20831381   0.23557776   0.32207246  0.073654027 
  193900       193839    257.11483   -1137.6697    1857.5305   0.62351923   0.46173886    1.2235874  -0.21401801   0.26776942   0.34527416  0.062713298 
  193950       193889     261.0561   -4360.4416    1854.2178   0.62463318   0.45127753    1.2248043  -0.21530707   0.28384431   0.30841556  0.074324734 
  194000       193939    244.09443    2966.3567    1853.5592   0.62485514   0.50368169    1.2269499  -0.19900905   0.27281381   0.34101911  0.088857819 
  194050       193989    257.33678   -78.700598    1854.3817   0.62457798   0.46535563    1.2278618  -0.20741111   0.26935315   0.32203255  0.081381045 
  194100       194039     259.4781    791.06266    1854.7374   0.62445818   0.46049984    1.2293509  -0.22207544   0.26905499   0.34641879  0.067101502 
  194150       194089    269.83022   -1077.1458    1854.3856   0.62457666   0.42605923    1.2255843  -0.21291253   0.22746624   0.34048651  0.071019023 
  194200       194139    291.71257    2785.7682    1856.5562   0.62384645   0.36163159    1.2259955  -0.21442468   0.19321154   0.31793133  0.064913397 
  194250       194189    261.88756    275.45264    1861.2293    0.6222801    0.4493117    1.2253021  -0.20448962   0.22123058   0.36694128  0.065629464 
  194300       194239    267.59848    1649.1112    1866.4866   0.62052736   0.42979497    1.2227072   -0.2131087   0.21953811   0.34902581  0.074339746 
  194350       194289    274.91168   -2173.0045    1872.8331   0.61842454     0.406173    1.2207548   -0.1986444   0.20475016   0.33959332  0.060473938 
  194400       194339    250.91549   -2336.1845     1881.131   0.61569662   0.47770656     1.221186  -0.20411774   0.23820334   0.36733053  0.076290432 
  194450       194389    263.48742   -130.26045    1888.3929    0.6133289   0.44381932    1.2245502  -0.20831437   0.25361499     0.314033  0.084485703 
  194500       194439    269.72279    1818.8379    1893.0795   0.61181053   0.42615688    1.2253636  -0.20503742   0.25009128   0.31994436  0.061158666 
  194550       194489    243.86433   -3866.9558    1896.4139   0.61073481   0.50059454    1.2231809  -0.20537942   0.27422737   0.34422312  0.087523463 
  194600       194539    248.82439   -488.46613    1898.0208   0.61021774   0.48921406    1.2264974   -0.1972483   0.27125314   0.34056976  0.074639455 
  194650       194589    261.88076     2032.096    1899.4575    0.6097562   0.44942666    1.2253969  -0.20826486   0.24038365   0.34612149  0.071186383 
  194700       194639    270.93139   -2234.0997    1899.0561   0.60988509   0.42215152    1.2249394  -0.20843562   0.21103029   0.33564941   0.08390744 
  194750       194689    282.67671    1707.3819    1898.4156   0.61009085   0.38891243    1.2265025  -0.21257577   0.18430561   0.33831002   0.07887257 
  194800       194739    243.55305    -1141.012    1898.9563   0.60991712   0.50736821    1.2290323  -0.18956793   0.21790952   0.40610723  0.072919387 
  194850       194789    251.43803    774.10199    1898.9424    0.6099216    0.4880592     1.233087  -0.21020945   0.22624856   0.38867807  0.083342026 
  194900       194839     265.3146   -261.82004    1895.8172   0.61092703   0.44566577    1.2318108   -0.2118107   0.19987082   0.37148085  0.086124802 
  194950       194889    261.38601   -1837.8223    1889.3682    0.6130123   0.45836809    1.2328724  -0.20017948   0.22540609   0.36872292  0.064418557 
  195000       194939    265.65951   -57.214624    1880.4496   0.61591971   0.44597125    1.2331382  -0.22549137   0.25951412   0.33822301  0.073725491 
  195050       194989    254.00088    3849.3386    1870.4704   0.61920572   0.47666526    1.2292869  -0.18729647   0.24193172   0.34371617  0.078313837 
  195100       195039    264.63447   -3424.5449    1865.3259   0.62091348   0.44587011    1.2299998  -0.21202118   0.24722801   0.34137186  0.069291416 
  195150       195089    249.92627    5974.8413     1863.503   0.62152086   0.49220519    1.2327535  -0.20424505   0.24694589   0.37129752  0.078206825 
  195200       195139    251.02118   -3430.3705    1865.0421   0.62100796   0.48831439     1.232107  -0.21610438   0.24757031   0.37824444  0.078604023 
  195250       195189    257.63546   -2455.6934    1864.9175   0.62104943   0.46891432    1.2323055  -0.20278563   0.23863852   0.34526459  0.087796843 
  195300       195239    255.92178    2821.2108    1864.8787   0.62106238   0.47489226    1.2332057  -0.20568813   0.22340951   0.36219753  0.094973352 
  195350       195289    275.18718    1661.4336    1864.5035   0.62118734   0.41685074    1.2322488  -0.20195936    0.2018479   0.34239346  0.074568744 
  195400       195339    278.41632    1924.2621    1863.6633    0.6214674    0.4065407    1.2315069  -0.20008952   0.21152534   0.32173814  0.073366737 
  195450       195389    251.61742   -1910.3869    1861.7779   0.62209675   0.48494786    1.2305072   -0.2185149   0.24435845   0.37964065  0.079463651 
  195500       195439    262.73185   -1884.1037     1859.037   0.62301395   0.45228171    1.2307738  -0.20482773   0.23751328   0.34827375  0.071322408 
  195550       195489     252.6628    549.00964    1858.9512    0.6230427   0.48381836    1.2324752  -0.20915337   0.24509945    0.3630096  0.084862673 
  195600       195539    275.52931     1491.941    1860.5697   0.62250072     0.416616    1.2330278  -0.22832748   0.22764976   0.33478578  0.082507942 
  195650       195589    276.15243   -1137.9302    1860.1998   0.62262449   0.41271376    1.2309719  -0.19406228   0.22467318   0.30980707  0.072295787 
  195700       195639    249.38586    2581.9975    1862.9611   0.62170164   0.49133482    1.2302819   -0.1872455   0.24018981   0.35852859  0.079861924 
  195750       195689    255.76583   -1789.5987    1868.3441   0.61991043   0.47394031    1.2317916  -0.20459448   0.24371725   0.34979308  0.085024456 
  195800       195739    264.36233   -980.73162    1875.5462   0.61752996   0.44976397    1.2330873  -0.22234555   0.21919102   0.37953477  0.073383732 
  195850       195789    266.43868    3291.6451    1880.0686   0.61604453   0.44034379    1.2298195  -0.19732024   0.22101749   0.33272916  0.083917386 
  195900       195839    257.13174   -5758.1828    1884.2788   0.61466806   0.46855321    1.2304518  -0.21485042   0.25172676   0.35022333  0.081453539 
  195950       195889    262.64457   -75.140798    1885.9543   0.61412196   0.45052069    1.2287542  -0.22151219   0.23407256   0.36842946  0.069530859 
  196000       195939    250.00848   -3277.9013    1887.3555   0.61366603   0.48331046    1.2241024  -0.20611287   0.26639605   0.34597584  0.077051439 
  196050       195989    251.03563    3056.3745    1889.1929   0.61306919   0.48177337    1.2256088  -0.20212829   0.25963283   0.33314655  0.091122283 
  196100       196039    265.15414    790.44821    1895.6061   0.61099507   0.44324244     1.228912  -0.17616439   0.20613158   0.34208536  0.071189899 
  196150       196089    238.97404    4582.4347    1907.8301   0.60708024   0.52408484    1.2321809  -0.17939939   0.22170562   0.40340062  0.078377978 
  196200       196139    252.42648   -495.49646    1922.2318    0.6025319   0.48660777    1.2345644  -0.19206625   0.22498417   0.37726352   0.07642633 
  196250       196189     246.1813    377.76734    1937.1061    0.5979053   0.50849324    1.2379449  -0.21682252   0.24221783   0.39796568  0.085132254 
  196300       196239    253.65025   -1043.2187    1943.1822   0.59603571   0.48318633    1.2347691  -0.20434753   0.21464636   0.38989205  0.082995459 
  196350       196289    245.72756    1299.1432    1943.8374   0.59583479   0.50491639    1.2330236  -0.19310944   0.23301497   0.38856258  0.076448272 
  196400       196339    230.85654   -6220.1152     1941.574    0.5965294   0.55264646    1.2366899  -0.19312913   0.26545985   0.37477019   0.10554555 
  196450       196389    258.48706    819.82952    1936.4441   0.59810969   0.47226281    1.2381773  -0.20890202   0.27075656    0.3415603  0.068847971 
  196500       196439    251.01908   -2557.4715    1927.7049   0.60082119   0.49102648    1.2348129  -0.20068771   0.22740744    0.3958927  0.068414056 
  196550       196489    268.76233    1514.5318     1916.257   0.60441055   0.43204988    1.2284107  -0.20099932   0.21447742   0.34249072  0.076081058 
  196600       196539    279.18741     85.03086    1906.2702   0.60757703   0.39819851    1.2254496  -0.21859525   0.21143506   0.32691984  0.078438862 
  196650       196589    279.75248   -1522.8852     1895.661   0.61097736   0.39440724    1.2233326  -0.21362756   0.19209538   0.34540263  0.070536792 
  196700       196639    255.68558    4684.8304    1886.1838   0.61404725   0.46558501    1.2231986  -0.20960262   0.21873876   0.36051104  0.095937831 
  196750       196689    260.75344   -1049.4257    1879.4445    0.6162491   0.45144971    1.2240797  -0.20915087   0.23349147   0.34092555  0.086183558 
  196800       196739    270.63424    950.23515    1873.6989   0.61813879   0.42267406    1.2245815  -0.20944614   0.22930146   0.32543356  0.077385184 
  196850       196789    264.12043     -2265.48    1870.9413   0.61904988   0.43963059    1.2222371  -0.21522904   0.22670269   0.35684385  0.071313098 
  196900       196839    242.19636   -1742.5859    1869.2745   0.61960187   0.50384905    1.2214931  -0.20345483   0.23595514   0.37707974  0.094269008 
  196950       196889    237.24744    3281.9805    1871.7089   0.61879599   0.52311904    1.2260991  -0.20247422   0.26794791   0.39336443   0.06428093 
  197000       196939    229.80619    1808.1118    1876.8886   0.61708827   0.54577756    1.2267087  -0.19589465   0.25973335   0.40435324  0.077585617 
  197050       196989    248.63256   -501.68387    1883.3438   0.61497321    0.4886779    1.2253929  -0.21141298   0.23200921   0.37596562  0.092116045 
  197100       197039    250.88335   -433.07869    1885.6862    0.6142093   0.48084708    1.2242313  -0.18896436    0.2098209   0.38840462  0.071585915 
  197150       197089    249.81843    3268.7287    1887.7808   0.61352779    0.4846236    1.2248524  -0.20090517   0.21849553   0.37191052  0.095122723 
  197200       197139     250.5734   -6703.0223    1886.5858   0.61391639   0.48807041    1.2305362  -0.21331795   0.21824309   0.37378286   0.10936242 
  197250       197189    268.50835    6199.8342    1882.8312   0.61514063   0.43637193    1.2319802   -0.2067604   0.22618249   0.34230342  0.074646422 
  197300       197239    265.88868   -5600.9987     1878.816   0.61645524   0.44275236    1.2305984   -0.2106835   0.22791962   0.34352017  0.081996072 
  197350       197289    277.54043    3738.3465    1875.9369   0.61740134   0.40427818    1.2266491  -0.21851365   0.18481636   0.33895851  0.099016952 
  197400       197339    273.37909    -36.84015    1875.3609   0.61759097   0.41815365    1.2281942  -0.22449121    0.2061936   0.36962806  0.066823207 
  197450       197389    268.88394   -2120.0314    1875.4735    0.6175539   0.43157489     1.228296  -0.22110728   0.23051996   0.35387747  0.068284747 
  197500       197439    254.15518    3392.1882    1876.6734   0.61715904   0.47380825    1.2268871  -0.19248574    0.2309968   0.35748441  0.077812784 
  197550       197489    252.23386   -3701.8175     1880.459   0.61591663   0.47982987    1.2272157  -0.20329468   0.23233505   0.38424942  0.066540077 
  197600       197539     234.1071    1142.9774    1883.8242   0.61481639   0.53581822    1.2294933  -0.18725048   0.26763414   0.38571108   0.06972348 
  197650       197589    260.14758    1664.4894    1884.7457   0.61451578   0.45483968    1.2256744    -0.220769   0.23255957   0.37125018  0.071798925 
  197700       197639    254.15868   -1216.8082    1881.8003   0.61547762   0.46612552    1.2192148  -0.20092071   0.20682803   0.38046679   0.07975141 
  197750       197689     236.9177    3396.6024    1878.1911   0.61666034   0.51798357    1.2199866  -0.18760837   0.21361585   0.39084081   0.10113528 
  197800       197739     248.5475   -70.930218    1877.0382    0.6170391   0.48955786    1.2260208  -0.21067378   0.19920201   0.40814005   0.09288958 
  197850       197789    246.22491    1148.2123    1873.8393   0.61809247   0.50147875    1.2310597  -0.22749754   0.19769619   0.41609199   0.11518811 
  197900       197839    272.16109   -307.46971    1866.3203   0.62058262   0.42453118    1.2309628  -0.21765917   0.21175532   0.33783517  0.092599858 
  197950       197889     256.0944    -3456.163    1858.7865   0.62309789   0.47569656    1.2345215  -0.23023332   0.21644808   0.39133838  0.098143424 
  198000       197939    266.27294    77.792452    1847.6853   0.62684158    0.4451625    1.2341471   -0.2143148   0.19757009   0.37903286  0.082874357 
  198050       197989    263.17765    2415.0592    1838.8733   0.62984543   0.45432134    1.2341344  -0.21064494    0.1951771   0.37463287  0.095156317 
  198100       198039    261.01313   -5576.4688    1831.2668   0.63246162   0.46296117    1.2363606  -0.21866387   0.25243823   0.34857745  0.080609366 
  198150       198089    274.49324     3103.231    1825.1194   0.63459189   0.42030495    1.2336469  -0.22484491   0.22826709   0.33212758  0.084755193 
  198200       198139      268.349   -5826.8698    1818.2691   0.63698271   0.43682899    1.2319651  -0.23031584   0.26440004   0.34139286  0.061351928 
  198250       198189    250.72481    5467.4245    1811.9542   0.63920267   0.48514353     1.228058  -0.19927351   0.24602417   0.35087215  0.087520718 
  198300       198239    260.80691   -3525.5039     1809.593   0.64003671   0.45575224    1.2285406  -0.21594978   0.24158563   0.33852811  0.091588276 
  198350       198289    250.88805    2334.1704    1808.8411   0.64030278   0.48726679    1.2306649  -0.22477312   0.25695757   0.38195123  0.073131114 
  198400       198339    248.12812    1452.5998    1809.9066   0.63992581   0.49634902    1.2315693   -0.2149189    0.2639633   0.34973164  0.097572975 
  198450       198389    252.38243   -3397.7391    1812.3462   0.63906443   0.48603361    1.2338597  -0.23483567   0.25969399   0.39342989  0.067745399 
  198500       198439    257.14301    310.73755    1813.3954   0.63869465   0.46735846    1.2292904  -0.23304605   0.24462899   0.37985145   0.07592406 
  198550       198489    262.60031    1716.9975      1815.51   0.63795075   0.44794802    1.2260504  -0.21684679   0.24106341   0.34158136  0.082150041 
  198600       198539    257.82511   -5532.5836    1818.4937   0.63690403   0.46135384     1.225307  -0.22481265   0.21775976   0.38296296  0.085443776 
  198650       198589    293.05969    4748.0858    1821.4457   0.63587183   0.35428326    1.2226388  -0.24685372   0.22614314   0.31287849  0.062115348 
  198700       198639    267.44221   -5322.3568    1821.7211   0.63577569   0.42718419    1.2196334  -0.20666304   0.20418693   0.36154426   0.06811604 
  198750       198689    259.08491     2378.426    1821.2172   0.63595159   0.45308867    1.2207747  -0.21694613   0.22914213   0.35439569  0.086496978 
  198800       198739    273.72292   -1419.5699    1819.7948   0.63644867   0.41206413    1.2231235  -0.24237483   0.23829769   0.33231309  0.083828185 
  198850       198789    266.26452   -2304.8254    1813.1401   0.63878462   0.43146907    1.2204287  -0.22710591   0.24513512   0.33243365  0.081006212 
  198900       198839     265.9638    1449.2645    1804.7267   0.64176253   0.42997756    1.2180461  -0.23336497   0.26657509   0.32071691  0.076050531 
  198950       198889    252.19982   -4894.7275    1798.4934   0.64398679   0.47037046    1.2176555   -0.2128915   0.25582594   0.34107267  0.086363346 
  199000       198939     242.6937    556.90401     1794.357    0.6454713   0.50358758    1.2227053  -0.22178347   0.24875767    0.3880737  0.088539671 
  199050       198989    254.44959    2519.4352    1792.2394   0.64623395   0.46744639    1.2213976  -0.21766074   0.23789963   0.35851244  0.088695067 
  199100       199039    258.00105   -2613.7278    1792.1813    0.6462549   0.45605102    1.2205255  -0.22070494   0.24389364   0.35258749  0.080274828 
  199150       199089    278.09768    6990.2713     1792.765   0.64604452   0.39454608    1.2185682  -0.23917591   0.24132663   0.31735335  0.075042004 
  199200       199139     264.2131   -2177.4317    1796.0704   0.64485556    0.4317923    1.2146735  -0.21937189   0.24646834   0.31718078  0.087515069 
  199250       199189    271.49803   -211.17061    1799.4766   0.64363491    0.4107322    1.2151991  -0.22857294   0.24268643   0.33052835  0.066090367 
  199300       199239    263.21554    2284.0748    1804.7919   0.64173934   0.43197865     1.211904  -0.24131891   0.25484061   0.34295481  0.075502144 
  199350       199289    246.27164   -6486.2521    1806.2544   0.64121974   0.48147568    1.2111951  -0.23445878   0.25559265   0.35968918   0.10065263 
  199400       199339    289.62817   -16.156884    1803.8492   0.64207473   0.34995684    1.2081446  -0.24892237   0.21868422   0.31024784  0.069947147 
  199450       199389    261.76544   -4251.4173    1798.0331   0.64415165    0.4292133    1.2048419  -0.25727938   0.24399559   0.36099098  0.081506112 
  199500       199439    265.10033    512.56501     1787.392   0.64798656   0.41729083    1.2028009  -0.24821557   0.24703894   0.32974333  0.088724131 
  199550       199489    244.74653    4058.3882    1777.4156   0.65162359   0.47940061     1.204601  -0.22142213   0.24640137   0.36981276  0.084608623 
  199600       199539    253.43305   -2375.4612    1770.0097   0.65435009   0.45711056    1.2080497  -0.21986554   0.25461034   0.34467091  0.077694852 
  199650       199589    275.89664    5897.0976     1765.639   0.65596986   0.38931627    1.2068165  -0.25540225   0.22944425   0.33336783  0.081906444 
  199700       199639    255.52747   -2862.8762    1760.3681   0.65793396   0.44857231    1.2057174  -0.24255951    0.2176752   0.39115343   0.08230319 
  199750       199689    259.23085   -154.27611     1754.244   0.66023084   0.43643605    1.2045545  -0.24574431   0.24688539   0.35721894  0.078076022 
  199800       199739    270.24668    2808.1387    1749.6906   0.66194902   0.40034403    1.2011031  -0.23935262   0.23551605   0.33725738  0.066923228 
  199850       199789    266.75228   -5232.5282    1749.3066   0.66209431   0.41198575    1.2023907   -0.2522014   0.25193754   0.33977326  0.072476354 
  199900       199839    261.57725    7240.8152    1751.7737   0.66116185   0.42964893    1.2047199  -0.21824896   0.21660718   0.34149208  0.089798632 
  199950       199889    262.30716   -4529.2668    1759.2732   0.65834346   0.42905533     1.206289  -0.26072164   0.25595615    0.3293639   0.10445693 
  200000       199939    262.31286    3059.2477    1764.1366   0.65652851   0.43271272    1.2099633  -0.23705805   0.25011257   0.34148642  0.078171794 
  200050       199989    239.52892    242.60008    1769.9394   0.65437607   0.49880665    1.2085469  -0.24779972   0.26159656   0.39799888  0.087010935 
  200100       200039    254.55868    2204.2798    1772.2302   0.65353019   0.45232002    1.2065945  -0.23813366   0.24964505   0.36291598  0.077892658 
  200150       200089    241.49842    3415.4604      1774.13   0.65283037    0.4915743    1.2071503  -0.23349406   0.25912533   0.38578384  0.080159187 
  200200       200139    251.06473    918.03416    1779.0548   0.65102322   0.46521185    1.2091335  -0.23860068   0.23365907   0.36971498   0.10043848 
  200250       200189    248.13175   -738.50652    1782.8098   0.64965201   0.48009345    1.2153245  -0.23660613    0.2457974   0.37473826   0.09616392 
  200300       200239    249.55212    6031.7102    1784.9977   0.64885573    0.4819637    1.2214034  -0.24100624   0.25898404   0.36353446   0.10045144 
  200350       200289    250.53773   -4576.0272    1786.1865   0.64842387   0.48101183    1.2233719  -0.24206174   0.28809825   0.35379339  0.081181926 
  200400       200339    250.14758    6718.5512    1784.7671   0.64893956   0.48048144    1.2216855  -0.22220832   0.23536656   0.37789501  0.089428198 
  200450       200389    247.46189   -9546.4282    1784.6778   0.64897203   0.49135994    1.2246061  -0.24633042   0.25727048   0.38909239  0.091327486 
  200500       200439    262.68969    4673.9576    1780.0117   0.65067323   0.44592098    1.2242882   -0.2237247   0.26275122   0.32178668  0.085107777 
  200550       200489    261.16227   -3876.8616    1776.6552   0.65190251   0.45012995    1.2239713    -0.236186   0.23967429   0.35274743  0.093894223 
  200600       200539    283.44277     4205.991    1774.0302   0.65286711   0.38211045    1.2219704  -0.24808705   0.20898076    0.3563467  0.064870043 
  200650       200589    272.49649    245.72209     1768.341   0.65496756    0.4089767    1.2164021  -0.22790039   0.19475625   0.36543249  0.076688349 
  200700       200639    272.29049   -818.01648    1765.3941   0.65606085   0.40900207    1.2158171  -0.24217026   0.22894807   0.34203137  0.080192895 
  200750       200689    268.18352    1597.3299    1762.4481    0.6571575   0.42138515    1.2160309  -0.23422081   0.27189009   0.31924626  0.064469617 
  200800       200739    266.62453    1220.5487    1762.5301   0.65712692   0.42317767     1.213204  -0.25881418   0.23261529    0.3640132  0.085363358 
  200850       200789    243.03526   -777.95955    1760.9393   0.65772054   0.49175799    1.2118878  -0.23458915   0.26023284     0.380207  0.085907301 
  200900       200839    254.69906   -3547.4679    1758.9942   0.65844787    0.4566091    1.2112995  -0.24606834   0.25683142    0.3503137  0.095532323 
  200950       200889    266.83383   -3306.3209    1757.1457   0.65914055   0.41880559    1.2094521  -0.25608958    0.2462277   0.36364944  0.065018029 
  201000       200939    265.33828    1897.9093    1752.3715   0.66093632   0.41654762    1.2027628  -0.23872673    0.2494391     0.336762  0.069073247 
  201050       200989    252.22561   -720.37287    1750.3536    0.6616983   0.45535607    1.2027175  -0.23503184    0.2343021   0.36500354  0.091082266 
  201100       201039    268.47263    115.25804    1750.3354   0.66170515   0.40944149    1.2049439  -0.23302591   0.20561347   0.34580444  0.091049503 
  201150       201089    272.62994    1948.6207    1750.9743   0.66146371   0.40000196    1.2078228  -0.25970704   0.23722203   0.34917915   0.07330783 
  201200       201139    259.45634    2918.3146    1752.4742    0.6608976   0.43418193    1.2029685  -0.23873253   0.23772195   0.35776141  0.077431092 
  201250       201189    261.94636    1300.6583     1756.554   0.65936258   0.42591395    1.2020786  -0.24209761   0.23672604   0.33416367  0.097121854 
  201300       201239    263.20647    3052.2435    1762.6919   0.65706661   0.41980985    1.1997083  -0.23078969    0.2354998   0.31729888  0.097800865 
  201350       201289    264.72703   -961.49562     1771.882   0.65365862   0.41401439    1.1984184  -0.24480436   0.22257668   0.35743164  0.078810432 
  201400       201339    265.10988    2084.7034    1782.6651   0.64970473    0.4129325    1.1984709  -0.23718411   0.22403729   0.35038257  0.075696741 
  201450       201389    258.16807   -5522.0292    1794.0931   0.64556625   0.43625495    1.2012243  -0.24753632   0.22834016   0.36738684  0.088064277 
  201500       201439    268.89088    900.51882    1802.6081   0.64251679   0.40776442    1.2045061  -0.22191671   0.25023459   0.31131355  0.068132988 
  201550       201489    254.93931   -1855.6244    1811.1825   0.63947502   0.45045742    1.2058597  -0.22977625   0.23800692   0.35257353  0.089653212 
  201600       201539    257.24048   -1857.9517    1818.3594   0.63695107    0.4461627    1.2083835   -0.2171418   0.24338347   0.34614121  0.073779821 
  201650       201589    255.31345    4366.0025    1825.2651   0.63454124   0.45419821    1.2107091  -0.21150877   0.25488303   0.32819491  0.082629043 
  201700       201639    264.21291   -4942.5428    1831.5814     0.632353   0.42899376    1.2118744   -0.2256516   0.27865826   0.30934108  0.066646033 
  201750       201689    265.82738    1948.5925    1838.7942   0.62987254   0.42466747    1.2123319  -0.21850448   0.23707869   0.32950889  0.076584365 
  201800       201739    259.63083   -2055.4667    1847.1871   0.62701064   0.44603352    1.2153371  -0.22732812   0.24839603   0.34405801  0.080907595 
  201850       201789    268.10987    956.69972    1853.0703   0.62501998    0.4206036    1.2150311  -0.23370011   0.25599064   0.32125856  0.077054518 
  201900       201839    285.20729   -2931.4899    1856.7808   0.62377098   0.36893182    1.2140202  -0.23668718   0.17617754   0.34825422  0.081187251 
  201950       201889     270.2863    779.16333     1859.446    0.6228769   0.41515489    1.2160313  -0.22190386   0.18277044   0.38075713  0.073531172 
  202000       201939    268.85336    4433.3165    1861.7944   0.62209122   0.42333837    1.2199689  -0.22410521   0.21855665   0.35412338  0.074763549 
  202050       201989    255.88724    452.49149    1864.7036    0.6211207   0.46555916    1.2237702  -0.21614197   0.24428801    0.3609387  0.076474425 
  202100       202039     254.8896    288.58358     1867.892   0.62006047   0.47229346    1.2275485  -0.20865567   0.25289197   0.35541781  0.072639339 
  202150       202089    249.69969   -4790.5832    1870.5017   0.61919537   0.48934835    1.2292253  -0.22338238   0.26985905   0.36499633  0.077875345 
  202200       202139    238.96425    2778.1929     1870.044   0.61934692    0.5241954    1.2322625  -0.19635941   0.30114541   0.34613423  0.073275165 
  202250       202189    246.33409   -176.19405    1870.2416   0.61928146   0.50548605    1.2353905  -0.21643144   0.30437168   0.35121551  0.066330294 
  202300       202239    243.46463    420.63976    1869.4824   0.61953297   0.50988204    1.2312841   -0.2350292    0.3324531   0.34235974  0.070098392 
  202350       202289    265.30144   -3321.6571    1864.3458   0.62123988   0.43996118    1.2260671  -0.19327009   0.22280189   0.33451841  0.075910965 
  202400       202339    268.03201   -747.38291    1860.4085   0.62255464    0.4366941    1.2308909  -0.21683048   0.21482814   0.35748846   0.08120797 
  202450       202389    263.74402     46.38681    1854.9443   0.62438856   0.45173354    1.2332248  -0.23655164   0.23369956   0.38152077  0.073064848 
  202500       202439    244.57064    4762.4073    1847.2604   0.62698576   0.50561603    1.2302953  -0.21797856   0.24379305   0.40519492  0.074606619 
  202550       202489     264.2684    105.61798    1843.0075    0.6284326   0.44516443    1.2282095  -0.22345487   0.24452866   0.34000081  0.084089826 
  202600       202539    260.88003    964.22534    1841.5463   0.62893123   0.45884297     1.231848  -0.22188057   0.21782574   0.38583167  0.077066136 
  202650       202589    253.04287    962.69953    1842.6217   0.62856417   0.48431962    1.2341026  -0.22466342    0.2643197   0.37615679  0.068506554 
  202700       202639    253.17036   -482.00925     1843.648   0.62821427   0.48032309    1.2304839  -0.23602559   0.25417102   0.39034292   0.07183474 
  202750       202689    234.78672    1938.2212    1840.1446   0.62941029   0.53404253    1.2297314  -0.21892213   0.25384982    0.4191759  0.079938941 
  202800       202739    254.58081   -1082.5253    1834.2898   0.63141931   0.47165764    1.2259977  -0.23570459   0.25424937   0.37096917  0.082143688 
  202850       202789    252.49756   -360.73935    1825.6039   0.63442346   0.47550275      1.22367  -0.21857788   0.24454445   0.38068365  0.068852518 
  202900       202839     246.7091   -3383.2093    1819.9062   0.63640969   0.49149255    1.2225082  -0.22863949   0.25331563   0.38057445  0.086241962 
  202950       202889    250.44332    2615.5613    1816.2116   0.63770432   0.48200804    1.2240884  -0.22208666   0.23876289    0.3887331  0.076598706 
  203000       202939    242.89829    2379.7696    1815.3455   0.63800857   0.50457364    1.2242976  -0.23615336   0.23574596   0.41460696  0.090374081 
  203050       202989    257.53878     2812.562    1815.6635   0.63789682   0.46075519    1.2238599  -0.23756291   0.25401002    0.3561133  0.088194785 
  203100       203039    268.07521    1085.0105     1816.989   0.63743146   0.42596863    1.2202935  -0.22882894   0.20221093   0.38241294  0.070173709 
  203150       203089     270.9321   -1775.6176    1819.1718   0.63666663   0.41673679    1.2195268  -0.22801339   0.23296996   0.32913733  0.082642902 
  203200       203139    267.23088    1823.7748    1821.7663   0.63575989   0.42812331    1.2199464  -0.21499259   0.21012423   0.35517167  0.077820004 
  203250       203189    268.24469   -668.32489     1823.127    0.6352854   0.42555423    1.2203813  -0.22800428   0.22271597   0.35404383  0.076798715 
  203300       203239    276.79054    2934.6746    1824.1166   0.63494076   0.40140966    1.2215586  -0.20841742   0.20460781   0.33430699  0.070912285 
  203350       203289    262.22164   -6217.7816     1825.333   0.63451762    0.4463375    1.2233178  -0.22095121   0.23075795   0.36832894  0.068201811 
  203400       203339    255.63056    3547.3267    1825.6842   0.63439556   0.46727336    1.2247239  -0.22319634   0.25034827   0.36993523  0.070186204 
  203450       203389    241.38712   -2486.9755    1824.9616   0.63464677   0.51024643    1.2254927  -0.22967883   0.29103297   0.38351084  0.065381447 
  203500       203439    266.89766    5905.2038    1821.2701   0.63593312   0.43330991    1.2241456  -0.24186222    0.2846715   0.33051905  0.059981579 
  203550       203489    249.34816   -3703.2735    1818.0369   0.63706405   0.48659932    1.2254347  -0.22876343   0.28413005   0.37083648   0.06039621 
  203600       203539    234.85864    812.11387    1816.6552   0.63754859   0.53129625    1.2271982   -0.2380899      0.30313   0.38716639  0.079089768 
  203650       203589    244.46295   -1942.6241     1814.491   0.63830901   0.50452465    1.2288848  -0.22363079   0.28138067   0.39025836  0.056516413 
  203700       203639    262.15746    642.10225    1812.8908   0.63887243   0.44952346    1.2263136  -0.23720808   0.23758279    0.3733137  0.075835057 
  203750       203689    274.66971   -2465.4318    1808.9025   0.64028103   0.40869002    1.2225548  -0.24060449   0.24142717   0.34267912   0.06518822 
  203800       203739      281.527    940.13171    1802.2225   0.64265425   0.38086308    1.2150465  -0.22353906   0.24073203   0.29108529  0.072584817 
  203850       203789    268.65397   -4880.5898    1797.7716   0.64424534   0.41897273    1.2150125   -0.2197031   0.21792526   0.33998149  0.080769078 
  203900       203839    278.51812    4815.4366    1793.4553   0.64579584   0.39220582    1.2174737  -0.22099692   0.22838884    0.3273388  0.057475101 
  203950       203889    277.49988   -1951.8819     1792.204   0.64624674   0.39562014    1.2178709  -0.23648138   0.23469212   0.31322948  0.084179918 
  204000       203939     272.7829     1630.385    1792.5277   0.64613001   0.41163856    1.2199126  -0.23935172   0.24684934   0.32350877  0.080632172 
  204050       203989    266.68205   -1095.0482    1793.9526    0.6456168   0.43151413    1.2217109   -0.2393489    0.2983358   0.30466803    0.0678592 
  204100       204039    242.33015   -4265.9151    1798.5148   0.64397913   0.50501498    1.2230555   -0.2377523   0.28005672   0.38035411  0.082356437 
  204150       204089    248.20205    5240.9095     1804.355   0.64189472   0.49053917    1.2259785  -0.21830027   0.27901757   0.35582787  0.073994006 
  204200       204139    265.07893    1193.3632    1815.6529   0.63790053    0.4422257    1.2276724  -0.22935244   0.24287399   0.33983295  0.088871194 
  204250       204189    268.34461    2681.0204    1829.3353   0.63312942   0.43523018    1.2303533  -0.23363038   0.26943192   0.31756381  0.081864822 
  204300       204239    266.54851   -2514.6513    1840.2609   0.62937051   0.44125116    1.2310523  -0.20946592   0.25611976    0.3228226  0.071774734 
  204350       204289    251.75959   -1006.5633    1851.3241   0.62560952   0.48702248     1.233003   -0.2026536     0.271786   0.34025443   0.07763566 
  204400       204339     275.2943   -2485.5303    1860.6051   0.62248888   0.41927502    1.2349905  -0.23142614   0.25268249   0.33130832   0.06671035 
  204450       204389    259.74831    2204.5819    1866.1527   0.62063838    0.4657574    1.2354091  -0.21609444   0.25187963   0.34522798  0.084744233 
  204500       204439    251.24588    1829.0482    1868.7504   0.61977562   0.49125278    1.2357112  -0.22578559   0.27042022   0.36588938  0.080728769 
  204550       204489     244.4907   -95.152291    1867.8532   0.62007335   0.51492616    1.2393685  -0.20356772   0.28352643   0.35771183  0.077255621 
  204600       204539      253.617   -6338.4948    1867.4445   0.62020904     0.490466    1.2419502  -0.22811338   0.29384284   0.34078562  0.083950917 
  204650       204589    254.98078    4708.1807    1862.2785   0.62192952    0.4887383    1.2442635  -0.19970149   0.24061977   0.35244162  0.095378403 
  204700       204639    270.35478    2024.6383    1856.0149   0.62402837   0.44519439    1.2462738  -0.22126373   0.21975037   0.34798086  0.098726899 
  204750       204689    278.76909   -1303.9213    1847.7834    0.6268083   0.42250704    1.2485186  -0.24701161   0.23368341   0.34346104  0.092374203 
  204800       204739    253.39578    3270.5694    1835.4561   0.63101809   0.49764461    1.2484733  -0.19282513   0.24028581   0.37846967  0.071714257 
  204850       204789    266.07386   -3266.9723    1831.3124   0.63244587    0.4591248    1.2475195  -0.24220425   0.26679182   0.36405507  0.070482161 
  204900       204839    260.40661    2284.4774    1825.1861    0.6345687   0.47518964    1.2467919  -0.22306201   0.27455457   0.33561892   0.08807816 
  204950       204889    278.04439    3982.8585    1819.4413   0.63657231   0.41983311    1.2436973  -0.22977913    0.2592428   0.31068212  0.079687317 
  205000       204939    262.97962   -7487.9058    1813.2303   0.63875282    0.4625376    1.2417639  -0.22074021   0.27642587   0.31855887   0.08829307 
  205050       204989    258.12715    4269.1993    1804.2823   0.64192061   0.47721602    1.2420641   -0.2100596   0.26640793   0.32884649   0.09202119 
  205100       205039    254.34893   -8149.2647     1797.854   0.64421582    0.4902474    1.2439004  -0.24896928   0.33243525   0.32147531  0.085306121 
  205150       205089     282.4628    1261.2827    1787.7614   0.64785265   0.40495909    1.2419153  -0.25030625   0.27035113   0.29772494  0.087189268 
  205200       205139     257.9502    232.65421    1777.1088    0.6517361   0.47287971    1.2372035  -0.21913306   0.28008055   0.34276322  0.069169004 
  205250       205189    263.73261   -4914.2576    1769.8832   0.65439685   0.45282881    1.2342862  -0.25570549   0.30695989   0.34923841  0.052335998 
  205300       205239    253.45493    2519.4715    1761.2981   0.65758656   0.47796614    1.2289701  -0.23547041   0.29295048   0.34527865  0.075207423 
  205350       205289    263.00707    892.36135    1756.7141   0.65930249   0.44433933    1.2236469  -0.24479043   0.27243115    0.3414567  0.075241903 
  205400       205339    289.84443   -566.39133    1753.2698   0.66059768   0.35820513    1.2170336  -0.25524836   0.23758719   0.29811389  0.077752418 
  205450       205389    262.73686    4817.1564    1748.0404   0.66257393   0.43539351    1.2139005  -0.23973489   0.26194034   0.33860205  0.074586012 
  205500       205439    265.04769   -1533.0312    1744.5752   0.66388995   0.42437972    1.2097338  -0.26320016   0.29022592   0.32814209  0.069211872 
  205550       205489     243.1862   -4487.8332    1740.2613   0.66553569   0.48868796     1.209265  -0.22335035   0.27883979   0.35760331  0.075595208 
  205600       205539    253.18753    746.82885     1740.742   0.66535189    0.4610974     1.211309  -0.25087595   0.29376358   0.32805933  0.090150444 
  205650       205589    255.00569   -6524.2626    1740.1618   0.66557374   0.45656225    1.2121612  -0.24805355    0.2839364   0.32827028  0.092409114 
  205700       205639    253.15508    7348.6311    1739.2859   0.66590889   0.46594114    1.2160566  -0.23025285   0.27433866   0.34143593  0.080419414 
  205750       205689    255.05563    -7871.504     1739.036   0.66600459   0.45742787    1.2131748  -0.25694574   0.26108597   0.36875923  0.084528416 
  205800       205739      259.928    6256.5547    1736.6109   0.66693465   0.43918024    1.2093644  -0.24521438   0.25405822    0.3493113  0.081025106 
  205850       205789    262.82193   -6040.0074    1737.7768    0.6664872   0.42805206    1.2068111  -0.24115507   0.23301858   0.36136922   0.07481933 
  205900       205839    257.84597    9035.4028     1740.869   0.66530335   0.44404292    1.2080578  -0.25318152   0.22812836   0.37233029  0.096765788 
  205950       205889    239.07786    2750.1541    1740.7172   0.66536137   0.50080529     1.209209  -0.25679372   0.26317911   0.39957373  0.094846175 
  206000       205939    256.41438   -553.28044    1739.5026   0.66582594    0.4503308    1.2101038  -0.25407261   0.26256624    0.3607224   0.08111477 
  206050       205989    247.98699   -428.00938    1737.1813   0.66671567   0.47712567    1.2119278  -0.25890021   0.28288494   0.36140898  0.091731957 
  206100       206039    261.69565    1714.2545    1735.0382   0.66753918   0.43722055    1.2126423  -0.24345817    0.2635367   0.33857212  0.078569901 
  206150       206089    260.11844   -2534.5199    1733.3979   0.66817086   0.43807181    1.2088202  -0.24646009   0.28967637   0.32093496   0.07392058 
  206200       206139    252.71107    2936.8719    1731.6558   0.66884306   0.45477263    1.2035725  -0.23876434   0.29166052   0.32629537  0.075581083 
  206250       206189    251.62774   -6769.7367     1731.048    0.6690779   0.45371841    1.1993083  -0.23825716   0.28938863   0.33537945  0.067207491 
  206300       206239    261.40454    4162.2133    1732.8282   0.66839055   0.42448705    1.1990462  -0.22628172   0.25810845   0.31738232  0.075278002 
  206350       206289    264.73308   -2770.7741    1739.8603   0.66568904   0.41848556    1.2029074  -0.23617578   0.23200133   0.34184778  0.080812231 
  206400       206339    274.76502    1574.0966    1747.7775   0.66267357   0.38851956    1.2026668  -0.25434787   0.23131679    0.3463439  0.065206744 
  206450       206389    260.47842    1329.2513     1753.837   0.66038405    0.4298436    1.2016586  -0.25527033    0.2378778   0.36453866  0.082697473 
  206500       206439    250.46375    1123.1474     1758.171   0.65875615   0.46108007     1.203221  -0.26424655   0.26932809   0.37345408  0.082544451 
  206550       206489    261.84015    1375.1287    1756.0388   0.65955604   0.42548917    1.2013391  -0.26773751   0.26597866   0.36256615  0.064681862 
  206600       206539    261.62836    5059.9165    1751.0806   0.66142356   0.42367216    1.1988946  -0.24073388   0.26217807   0.32405639  0.078171591 
  206650       206589    256.69019   -8939.6518    1746.9287   0.66299556   0.43856919    1.1991595   -0.2598359   0.29361765   0.32956762   0.07521982 
  206700       206639    239.31658    6200.5174    1741.6448   0.66500698   0.48899953    1.1981106  -0.22645292   0.26686721   0.36925364  0.079331597 
  206750       206689    241.72528   -1688.8497    1741.1919   0.66517995   0.48543959    1.2016878  -0.24393419   0.26295858   0.36937957  0.097035636 
  206800       206739    245.36301   -2119.9148    1743.0179   0.66448311   0.47838418    1.2054112  -0.23259193   0.26587025   0.36967243  0.075433435 
  206850       206789    251.99868    5815.3957    1748.5277   0.66238924   0.45992323    1.2066122  -0.22455774   0.27978984   0.31640054  0.088290583 
  206900       206839    225.50723   -4512.9802    1759.1354     0.658395   0.54120776    1.2094008  -0.18749042   0.31415393   0.35088043  0.063663826 
  206950       206889     272.1454     10335.16    1775.3948   0.65236532    0.4019594    1.2083445  -0.24047211   0.23192551   0.33142701  0.079078994 
  207000       206939    270.42249   -5244.7664    1791.4417   0.64652171   0.40644944    1.2077294  -0.25107026   0.22816215   0.36392679  0.065430764 
  207050       206989    267.69236    4971.9528    1804.4107   0.64187492   0.41030968    1.2035001  -0.23897379    0.1995392    0.3745654  0.075178875 
  207100       207039    284.09437   -634.94431    1814.0345   0.63846964    0.3638735    1.2056642  -0.24912334   0.23166447   0.30694499  0.074387366 
  207150       207089    278.18006      -3720.4    1821.7749    0.6357569   0.38261121    1.2068774  -0.23186946   0.23676338   0.29590002  0.081817279 
  207200       207139    247.35471    328.98227    1826.6582   0.63405731   0.47688357    1.2098122  -0.22522898   0.28088533   0.35033101  0.070896215 
  207250       207189    250.48088   -4051.1709    1830.5417   0.63271216   0.47114759    1.2133393  -0.20992053   0.27521405   0.34409108   0.06176298 
  207300       207239    245.36809   -2676.4625    1834.2773   0.63142361   0.49189214    1.2189342  -0.23115116   0.30931285   0.33644659  0.077283862 
  207350       207289    258.08067    1351.9926     1836.342   0.63071365   0.45624541    1.2209558  -0.20646573   0.27593552   0.31341494   0.07336068 
  207400       207339     265.3445   -2488.4446    1839.6202   0.62958972   0.43845621    1.2246898  -0.22791306   0.28068735    0.3191816  0.066500315 
  207450       207389    266.46575     6627.212    1842.9128   0.62846487   0.43223314     1.221789  -0.20991779   0.27589553   0.31822912  0.048026285 
  207500       207439    265.66289   -761.76464     1849.104   0.62636065   0.43242744    1.2196044  -0.20263569   0.25823293   0.30163013  0.075200066 
  207550       207489    273.84438    3817.6076    1858.0447   0.62334668   0.40816156    1.2195808  -0.21480656   0.23467726    0.3086081  0.079682763 
  207600       207539     273.3031    -2224.451    1865.8269   0.62074675   0.41303466    1.2228501  -0.20651541   0.28250367   0.26090266  0.076143741 
  207650       207589    256.91508    -349.2953    1873.6913   0.61814131   0.46343167    1.2246883  -0.20114704   0.21576031   0.35909186  0.089726532 
  207700       207639    266.49288   -1005.9057    1878.6577   0.61650718   0.43577888    1.2254152  -0.23071011   0.23261834   0.35928861  0.074582046 
  207750       207689    264.51425   -1434.1298    1880.1537   0.61601665   0.43956002    1.2233335   -0.2057221   0.22781996   0.34956665  0.067895512 
  207800       207739     254.9011   -4416.9349     1880.909   0.61576929   0.46898608    1.2242752  -0.22353117   0.25794384   0.34348368  0.091089732 
  207850       207789    253.49324    5686.7087    1880.1513   0.61601744   0.47655241    1.2276699  -0.20232814   0.24983399   0.34366955  0.085377007 
  207900       207839    250.82256    -2848.161    1880.4397   0.61592295   0.48918541    1.2323895  -0.21722468   0.23777359    0.3843931  0.084243393 
  207950       207889    254.90031    4765.2463     1878.926   0.61641916   0.47785374    1.2331405  -0.21068568   0.26708765   0.34874768  0.072704089 
  208000       207939    278.69807   -269.09985    1877.3504   0.61693648   0.41008724    1.2358883  -0.19823618   0.22640618   0.30851959  0.073397641 
  208050       207989    253.34625     417.2241    1878.2062   0.61665537   0.48765054    1.2383325  -0.23218325   0.26548315   0.37257788  0.081772761 
  208100       208039    260.57329    1424.0666    1875.3217   0.61760389    0.4664439      1.23854  -0.20468354    0.2505212   0.33852815  0.082078091 
  208150       208089    259.35326   -2117.8898     1873.778   0.61811268   0.47255532    1.2410364  -0.22260037   0.25162389   0.36658589  0.076945911 
  208200       208139    253.86877    -3473.398    1869.4788   0.61953416   0.48990348    1.2421337  -0.19604099   0.27039713   0.34108603  0.074461317 
  208250       208189    272.40183   -862.25465    1867.4954   0.62019215   0.43374259    1.2408875  -0.21334557    0.2309816   0.34527604   0.07083051 
  208300       208239    277.42221   -457.09297    1867.0301    0.6203467   0.41780237     1.239823  -0.21879116    0.2190134   0.36289473  0.054685392 
  208350       208289    251.21036    292.23284    1867.1122   0.62031944   0.49524706    1.2396002  -0.21494526   0.24374066   0.37417458  0.092277073 
  208400       208339    272.04965    1723.7001    1868.7927   0.61976161   0.43536793    1.2414693  -0.21973113   0.24827089   0.32975125  0.077076906 
  208450       208389    277.11911   -5564.7477    1870.7716   0.61910604   0.42024263    1.2413651  -0.21489473   0.24599414   0.32935291  0.059790309 
  208500       208439    272.59587    6952.9756    1871.8581   0.61874666   0.43203873    1.2397586  -0.23507648   0.25074137   0.33738157  0.078992262 
  208550       208489      283.139    -4865.386    1872.6434   0.61848721   0.39832251    1.2372824  -0.21408125   0.19751057   0.34118327  0.073709927 
  208600       208539     266.7178   -1059.0484    1873.1567   0.61831772   0.44653324     1.236836  -0.22859903   0.25414718   0.34385539  0.077129703 
  208650       208589    255.25227   -1119.8029     1873.173   0.61831234   0.48094322    1.2372728  -0.18559565   0.20705629   0.38689642  0.072586156 
  208700       208639    265.07225    204.16532    1873.3382   0.61825782   0.45103009     1.236457  -0.22482274   0.25835251   0.34559891   0.07190141 
  208750       208689    240.16292   -1463.1647    1870.8685   0.61907397   0.52344706    1.2350659   -0.2051743   0.27400384   0.37637771  0.078239817 
  208800       208739    252.40763    5372.4531    1867.6102   0.62015403   0.48580071    1.2337014  -0.21320483   0.26890202   0.35814379  0.071959727 
  208850       208789    243.38935    1026.8182     1864.213   0.62128415   0.51191095    1.2330899  -0.19545805   0.26349194   0.37094955   0.07292751 
  208900       208839    270.25625    2.5625059    1863.3134    0.6215841   0.42944772    1.2302351  -0.22780639   0.21389158   0.36801562  0.075346916 
  208950       208889    274.82598   -1359.9086    1860.9909   0.62235984   0.41394112    1.2282689  -0.22280614   0.24980132   0.32004201   0.06690393 
  209000       208939    262.95089   -2140.1837    1857.9965   0.62336285   0.44762421    1.2267653  -0.24100038   0.24849764    0.3627222  0.077404748 
  209050       208989    278.57166    1663.6627    1850.0298   0.62604719    0.3972187    1.2226452  -0.24647666   0.21545152   0.34068123  0.087562609 
  209100       209039    283.28646   -4639.1863    1839.0067   0.62979975   0.38246717     1.221864  -0.23885315   0.22703697   0.32930203  0.064981312 
  209150       209089    272.56341   -2824.6186     1827.415   0.63379472   0.41454508    1.2221688  -0.24194647   0.23844498   0.33211846   0.08592811 
  209200       209139    266.95471    2771.0616     1814.917    0.6381592    0.4333528    1.2243575  -0.22411522   0.23288793   0.35173684  0.072843247 
  209250       209189    252.26319   -4052.9801     1804.966   0.64167745   0.47708897    1.2245617  -0.24935364   0.26989104   0.36377463  0.092776946 
  209300       209239    258.81882    6102.5698     1794.143    0.6455483   0.46000846     1.226906   -0.2123052   0.25136653   0.36196775  0.058979372 
  209350       209289    241.21548    353.35298    1786.7833    0.6482073   0.51228425    1.2270219  -0.22941128   0.26019272   0.39524531  0.086257486 
  209400       209339    261.33568   -3212.2921    1781.2466   0.65022215   0.45555768    1.2299128    -0.249625   0.27832118   0.35345758  0.073403911 
  209450       209389    271.89046     1105.936    1774.1968    0.6528058   0.41833012    1.2239598  -0.24339738   0.23232736   0.35327976  0.076120381 
  209500       209439    235.19196   -2987.7957    1767.9881   0.65509829   0.52335445     1.220244  -0.25341522   0.28845468   0.39659116  0.091723833 
  209550       209489    257.96018    3977.8612    1760.9512   0.65771612   0.45356254    1.2179159  -0.22011582   0.22073774   0.37309827  0.079842345 
  209600       209539    268.12506   -2354.6187    1757.7146   0.65892721   0.42264849    1.2171211  -0.24533527   0.22291526   0.34517998  0.099888521 
  209650       209589     272.4688    5347.2412    1756.9787    0.6592032   0.40785804    1.2152014  -0.26410492   0.21042866   0.36510699  0.096427305 
  209700       209639    277.30379    -4242.993    1754.7565   0.66003802   0.39134808    1.2130178  -0.26152642   0.20863802   0.37405073  0.070185741 
  209750       209689    256.82054    5470.1152    1754.0313   0.66031088   0.44733549     1.208312  -0.23950545   0.24650081   0.35548782  0.084852313 
  209800       209739    256.80441   -1839.0209    1756.3388   0.65944337   0.44831053    1.2092392  -0.24803683   0.26790724   0.34549346  0.082946665 
  209850       209789    281.63917    2219.7904    1761.4869   0.65751608   0.37182836    1.2063441  -0.25786077   0.24879717   0.31059999  0.070291977 
  209900       209839    249.26515    1427.8374    1768.0217   0.65508582   0.46311112    1.2017005  -0.23687077   0.23586654   0.38001219   0.08410316 
  209950       209889     237.6505   -990.02616    1777.9325   0.65143415   0.49599382    1.2001682  -0.23236446   0.25099696   0.38846081  0.088900518 
  210000       209939      251.847   -2317.9088    1789.9035   0.64707733   0.45657659    1.2028161  -0.22227924   0.20991673   0.37403521  0.094903891 
  210050       209989    257.98766    2066.1919     1800.185   0.64338163   0.44011235    1.2045471  -0.24088673   0.22353902   0.36993556  0.087524492 
  210100       210039     266.6543    5039.4921    1806.9635   0.64096809   0.41234603    1.2024606  -0.22778741   0.20299406   0.36183973  0.075299657 
  210150       210089    248.58978    3604.6575    1814.6007   0.63827042   0.46598584    1.2025741  -0.21355324   0.22266484   0.37393848  0.082935756 
  210200       210139    245.93843    1960.7182    1821.9014   0.63571277   0.48016521    1.2088973  -0.20844992   0.25068636   0.37281548  0.065113296 
  210250       210189    238.33442   -4326.1833    1829.4318   0.63309601   0.50712629    1.2133272  -0.21194552   0.29607091   0.34745342  0.075547489 
  210300       210239    262.54898    6892.5058    1832.9233   0.63189004   0.43962495    1.2175752  -0.21283803   0.26091584   0.32143048  0.070116663 
  210350       210289    261.27847   -5057.7381    1836.3481   0.63071156   0.44606037     1.220246  -0.21807507   0.26628854   0.33199803  0.065848863 
  210400       210339    256.34753   -1463.8925    1838.3969   0.63000866   0.46175856    1.2213335  -0.19924187   0.28055457   0.32991636  0.050529495 
  210450       210389    262.86145   -2152.7757    1840.5712   0.62926442   0.44084377    1.2197199  -0.22376298   0.25404294   0.33498372  0.075580093 
  210500       210439    249.10183    -3852.071     1840.462   0.62930174   0.48139495    1.2195004  -0.22088672   0.25108029   0.37211517   0.07908621 
  210550       210489    265.66981    3760.3914     1835.172   0.63111575    0.4314652    1.2186627  -0.23889206   0.25056957   0.35771937  0.062068325 
  210600       210539    252.23156   -2463.8203    1827.2084   0.63386639    0.4680251    1.2154041  -0.21656957   0.23419653   0.37444864  0.075949498 
  210650       210589    241.19764    3479.4585    1820.8416   0.63608276   0.50447328    1.2191581  -0.22885012   0.24221888   0.39837474  0.092729774 
  210700       210639    239.52046   -170.26438    1812.0477   0.63916968   0.51166361    1.2213788  -0.21137528   0.26567623   0.38444041  0.072922237 
  210750       210689    265.24658    2209.5898    1804.5941   0.64180968   0.43242104    1.2183645  -0.22243078   0.25592941   0.34403768  0.054884731 
  210800       210739    266.36511    5316.8458    1798.2312   0.64408068   0.42713929     1.216397  -0.21800218   0.27518337   0.31323788  0.056720213 
  210850       210789    275.53019   -791.40258    1793.7812   0.64567851   0.39679252     1.213207  -0.23247665   0.23753997   0.31426777  0.077461425 
  210900       210839    256.48567   -2728.9352    1788.9147   0.64743501   0.45512773     1.215112  -0.22777293   0.27325713   0.32956171  0.080081821 
  210950       210889    263.09645   -251.59763    1787.1223   0.64808432   0.43634309    1.2159155  -0.21183317   0.26896138   0.31761523  0.061599644 
  211000       210939    262.76128   -5262.9535     1790.939   0.64670319   0.43474761    1.2133269  -0.23851999   0.26279917    0.3296025  0.080865941 
  211050       210989    278.62923    6635.6038    1795.2648   0.64514492   0.38614311    1.2117402  -0.23805972   0.23530653    0.3298736  0.059022696 
  211100       211039    264.47708    -2100.544    1800.9603   0.64310467   0.42573595    1.2093993  -0.23005031   0.24419061   0.35382446  0.057771193 
  211150       211089     279.5865    3390.6091    1809.2723   0.64015018   0.37699491    1.2054285  -0.24895029   0.22657154   0.34387852   0.05549514 
  211200       211139    267.07142   -1457.4972    1815.0534   0.63811124   0.40674132    1.1980919  -0.23610638   0.20737818   0.37850472    0.0569648 
  211250       211189    258.49657    2961.9988    1820.7172   0.63612625   0.42595863    1.1919013  -0.20218789   0.21749297   0.34579318  0.064860366 
  211300       211239    256.88322    1436.8057     1829.662   0.63301635   0.43290767    1.1940699  -0.20427133   0.24817092   0.32696093  0.062047138 
  211350       211289    257.99014    4821.7937     1843.533   0.62825344   0.43566608    1.2001082  -0.21780656   0.25082748   0.33069283  0.071952322 
  211400       211339    250.14912   -3739.9555    1857.8808   0.62340166   0.46244123    1.2036499  -0.23359816   0.28556714   0.34500426  0.065467984 
  211450       211389    246.59442   -1443.6555    1868.3204   0.61991827   0.47243653    1.2031124  -0.21076876   0.23646885   0.38163754  0.065098896 
  211500       211439      281.325   -4761.4037    1876.3664   0.61726002     0.370078    1.2036629   -0.2362025   0.24786257   0.30816149  0.050256446 
  211550       211489    256.09601    2052.4618    1880.1881   0.61600536   0.44571285    1.2045425  -0.22942032    0.2384403    0.3681043  0.068588571 
  211600       211539    256.49791    1367.1315    1879.4669   0.61624176   0.44359148     1.203612  -0.22117003   0.25358469    0.3570733  0.054103518 
  211650       211589    262.93128    2790.5212    1877.0237   0.61704388   0.42281663    1.2018997  -0.21455537    0.2434252   0.33805007   0.05589673 
  211700       211639     248.8296   -130.90836     1877.127   0.61700992   0.46627244    1.2035713  -0.19515145   0.22616629   0.37179103  0.063466568 
  211750       211689    248.71369    2133.5862    1880.8848   0.61577721   0.47212078    1.2090761  -0.22805061   0.24414458   0.38866628  0.067360522 
  211800       211739     258.6717   -19.692484    1881.9513   0.61542824   0.44550102    1.2119626  -0.22765769    0.2460218   0.35535947  0.071777447 
  211850       211789    253.15075   -3200.3446    1878.6296   0.61651642   0.46374431     1.213847  -0.22657215   0.28121408   0.33771767  0.071384708 
  211900       211839    274.35027   -1984.6172    1872.0061   0.61869776   0.40223894    1.2151572  -0.23519305   0.23130288   0.31428149  0.091847624 
  211950       211889    268.09366   -7081.7496    1861.8292    0.6220796    0.4251312    1.2195107  -0.21412299   0.23656811   0.34926674  0.053419337 
  212000       211939     265.8462    1601.2873    1849.7576   0.62613932   0.43133007    1.2190502  -0.23540499   0.24430219   0.34041908  0.082013791 
  212050       211989    283.37214   -1703.7982    1835.5834   0.63097433   0.37792501    1.2175757  -0.22454929   0.24031065   0.30174721  0.060416433 
  212100       212039    261.27976   -2711.9879    1821.3896   0.63589141   0.44206203    1.2162515  -0.22880288   0.26567549   0.32495209  0.080237336 
  212150       212089    246.30121    2979.9033    1808.3614   0.64047263   0.48892303    1.2187301  -0.23308063   0.25108397   0.39433091  0.076588785 
  212200       212139    266.98881   -176.46774    1796.5279   0.64469132   0.42572358    1.2168293  -0.23375406   0.25919585   0.32367521  0.076606571 
  212250       212189    257.38639   -1452.9339    1787.1973   0.64805713   0.45428799    1.2169411  -0.24215278   0.24041335   0.36222292  0.093804507 
  212300       212239     269.8916    4985.6453    1778.1361   0.65135956   0.41609983    1.2158068   -0.2277196   0.25499259   0.33033928  0.058487565 
  212350       212289    262.75652   -4040.9697     1773.508   0.65305935   0.43421698    1.2127822  -0.25749551   0.23659694    0.3875766  0.067538949 
  212400       212339    257.06481    3218.8346    1770.4639   0.65418218   0.45007319    1.2117735    -0.231859   0.22196855   0.39742171  0.062541935 
  212450       212389    265.34797   -2374.3984    1772.4776   0.65343898   0.42284871    1.2090926  -0.25561175   0.24439346   0.37563814  0.058428869 
  212500       212439    245.12458   -3283.7395    1775.3052   0.65239824   0.48231722    1.2086378  -0.23890619   0.25721394   0.39807905   0.06593042 
  212550       212489    258.06961    6213.6673     1780.185   0.65060988   0.44207829    1.2067559  -0.22522591   0.23115697    0.3702778  0.065869432 
  212600       212539    247.52393   -625.79106    1788.2041   0.64769228   0.47337228    1.2068023  -0.19832914   0.24359801   0.36524678  0.062856643 
  212650       212589    256.93547   -1943.8636    1799.7707   0.64352975    0.4496191    1.2109361  -0.22764183   0.26901606   0.33745371  0.070791158 
  212700       212639    250.12958    4420.8106    1810.7064   0.63964316   0.47010037    1.2112511  -0.20318321   0.23640314   0.37451901  0.062361434 
  212750       212689    267.25196   -971.31994    1825.4933   0.63446193    0.4204129    1.2122984  -0.23720562   0.21716239   0.37446021  0.065995921 
  212800       212739    255.91719    1254.1912    1837.5486    0.6302995   0.45350293    1.2118028  -0.21777801   0.23693861   0.37772054  0.056621789 
  212850       212789    264.75949   -831.71972    1848.0436   0.62672003   0.42718263    1.2116828  -0.22614059   0.26648579   0.32442172  0.062415708 
  212900       212839    274.17736   -1399.3751    1857.8494   0.62341218   0.40009558    1.2125015  -0.22565534   0.23627416   0.33615459  0.053322162 
  212950       212889    263.24599    850.50884    1863.4367   0.62154297   0.43159924    1.2116148  -0.20240029   0.22627483   0.34583412  0.061890583 
  213000       212939     260.1821     1665.753    1869.7519   0.61944366   0.44225172    1.2131888  -0.22603935    0.2237455   0.36937932  0.075166262 
  213050       212989     254.9766   -3733.3678    1872.4846   0.61853964   0.45783951    1.2133523  -0.21733161   0.25926675   0.35874869  0.057155674 
  213100       213039    266.63871    326.64511    1873.8461   0.61809024   0.42416659     1.214235   -0.2098654   0.24496942   0.34040022  0.048662354 
  213150       213089     258.0546    1192.5426    1876.4745   0.61722448    0.4512086    1.2158417  -0.20923958   0.23957599   0.36282326  0.058048936 
  213200       213139    259.96763   -1706.9642    1879.2084   0.61632652   0.44748537    1.2177869  -0.23491815   0.25511578   0.37402084  0.053266898 
  213250       213189    252.12761    2095.5888    1878.7447   0.61647864   0.46723454    1.2143056  -0.21686615   0.24150371   0.38551231  0.057084665 
  213300       213239    251.90449   -3537.1528    1878.8612   0.61644042   0.46831614     1.214726  -0.20907644   0.26097643   0.35479523  0.061620914 
  213350       213289    260.14128    330.25168    1877.8581    0.6167697   0.44536143    1.2161775  -0.21171987   0.26366452   0.32404132  0.069375456 
  213400       213339    271.49045   -2451.6779    1878.2357    0.6166457   0.41195074    1.2163952  -0.23186882   0.22303816   0.34961285  0.071168552 
  213450       213389    248.66581    4217.8443    1876.4715   0.61722544   0.48144828    1.2182618  -0.18814897   0.22546037    0.3816919  0.062444981 
  213500       213439    243.56229   -3041.0981    1877.7584   0.61680244   0.50012685    1.2218183  -0.21438103   0.23550237   0.40511518  0.073890324 
  213550       213489    258.59153    1417.5359     1880.023   0.61605948   0.45938726    1.2256113  -0.21303624   0.28286889   0.33106207  0.058492546 
  213600       213539      262.185   -445.08431     1884.437   0.61461643   0.44896422     1.225836  -0.19549059   0.27874708   0.29197464  0.073733096 
  213650       213589    272.66926    3459.1273    1890.5502   0.61262903   0.42038737    1.2283247  -0.21332866   0.24172399    0.3361755  0.055816537 
  213700       213639     250.0197    974.03493    1894.7063   0.61128523   0.48566877    1.2264939  -0.19378113   0.24118736   0.37296294  0.065299593 
  213750       213689    257.34285   -3778.3918    1898.2304   0.61015036   0.46534101    1.2278652  -0.19971336   0.27122854   0.34021828   0.05360754 
  213800       213739    269.11756   -941.46877    1899.8859   0.60961868   0.42858148    1.2259949  -0.22503792   0.23702426    0.3517311  0.064864052 
  213850       213789    248.93011    117.24326    1897.9864   0.61022882   0.48764022    1.2252368  -0.20300975   0.25353118   0.37479986  0.062318921 
  213900       213839    272.24413   -2268.5946    1896.0181   0.61086229   0.41687397    1.2235516  -0.21370889   0.23372225   0.33610133  0.060759285 
  213950       213889    257.92817   -1998.6012    1891.3507   0.61236976   0.45861625    1.2228747  -0.20152983   0.23074091   0.34603454  0.083370641 
  214000       213939    269.63125    3402.8917     1887.157    0.6137306   0.42642677    1.2253623  -0.20164529   0.25590617    0.3006019  0.071563992 
  214050       213989    257.16242   -5733.6308    1883.4234   0.61494723   0.46579384    1.2277834  -0.18361116    0.2645509   0.31510249  0.069751601 
  214100       214039    253.07533     6537.005    1882.3878   0.61528553   0.48402724    1.2339065  -0.19006485   0.27252441   0.33274554  0.068822155 
  214150       214089    261.39818   -5004.4539    1883.7961   0.61482553   0.46080932    1.2353497  -0.21111049   0.26414689   0.33539227  0.072380647 
  214200       214139    266.24824    -579.2996    1883.7832   0.61482977   0.44457496    1.2334864  -0.20794165   0.25246869   0.33719289  0.062855024 
  214250       214189    248.48304    2363.2639    1882.9059   0.61511623   0.49725496    1.2335269  -0.18970088   0.25271743   0.35304892  0.081189489 
  214300       214239    251.11309     667.2177    1882.1452   0.61536485   0.49195007     1.236015  -0.18641092   0.24345452   0.37263588    0.0622706 
  214350       214289     248.7799   -1296.7866    1883.7658   0.61483543   0.50178537    1.2389369  -0.18238302   0.25077108   0.36586583  0.067531474 
  214400       214339    279.06672    4893.6338    1888.4174   0.61332097   0.41151776    1.2384112  -0.21280871   0.19387784   0.35913262  0.071316022 
  214450       214389     252.9784   -3643.3343    1893.2475   0.61175623   0.48770072    1.2372927  -0.22026855   0.25413505   0.39512923  0.058704995 
  214500       214439    272.47557     5823.288    1896.7106   0.61063928   0.42629242    1.2336558  -0.19027884   0.23131415   0.31531087  0.069946231 
  214550       214489    273.32652   -5020.9431    1902.3621    0.6088252   0.42328838    1.2331732  -0.22641627   0.25323048   0.33730848  0.059165698 
  214600       214539    256.59157     2118.599    1905.2808   0.60789255    0.4683361    1.2286341  -0.21985364   0.26190578   0.36761391  0.058670047 
  214650       214589    261.35982   -151.17975    1908.0706   0.60700372   0.45018111    1.2246078  -0.20045065   0.24389776   0.33876415  0.067969846 
  214700       214639    278.39697    -690.8295     1912.198   0.60569354   0.39972754    1.2246364  -0.20553379   0.23109886   0.31900332  0.055159148 
  214750       214689    253.60476   -3092.2216    1916.2997   0.60439711   0.47315942    1.2246073  -0.19824339   0.26033826   0.35221596  0.058848588 
  214800       214739    241.26835    3409.9057    1917.6837   0.60396089   0.51043449    1.2253288  -0.19872245   0.22723188   0.40088979  0.081035268 
  214850       214789    247.95056   -7221.5117    1917.5494   0.60400319   0.49233146    1.2270256  -0.19719918    0.2613558   0.36472582  0.063449018 
  214900       214839    256.46777    4161.6222    1918.1216   0.60382302   0.47020903    1.2301402  -0.21204686   0.27117094   0.34334545  0.067739489 
  214950       214889    249.25055     752.8054    1917.6464   0.60397265   0.49267608    1.2312222  -0.20770527   0.27328388   0.36680033  0.060297143 
  215000       214939    257.43349    -889.6403    1915.7602   0.60456731   0.46388962    1.2266823  -0.23268104   0.29110973   0.33767086   0.06779007 
  215050       214989    256.54134   -1551.7193    1909.2799   0.60661925   0.46158313    1.2217323  -0.21890411   0.27649973   0.34966038  0.054327135 
  215100       215039    251.67765    3200.0391    1902.3999   0.60881308   0.47553627     1.221274  -0.20182855   0.24747806   0.36189278  0.067993971 
  215150       215089    254.44698   -1712.8855    1899.3321   0.60979646   0.46738964    1.2213331  -0.22871689   0.26397003    0.3439999  0.088136607 
  215200       215139    262.65469    3153.5707    1893.8915   0.61154822   0.44353792    1.2218014  -0.20511757   0.22112163   0.37028899  0.057244871 
  215250       215189     267.6893   -1939.9123    1891.8625   0.61220409   0.42881527    1.2219966  -0.22128692   0.22883671    0.3550281  0.066237374 
  215300       215239       264.45    1526.8887    1890.1517   0.61275821   0.43886274    1.2224458  -0.22139992   0.21968932   0.35865555   0.08191779 
  215350       215289    261.58612   -5582.1843    1885.9664   0.61411802   0.44879807    1.2238953  -0.22331262   0.22060898   0.37846623  0.073035476 
  215400       215339    267.36675     1339.895    1880.5278   0.61589411   0.43342167    1.2256473  -0.22630374   0.25406552   0.33377765  0.071882246 
  215450       215389    247.88501    1365.7409     1873.429   0.61822783   0.49360839    1.2281083  -0.19295149   0.24746004   0.37980433  0.059295517 
  215500       215439    248.95293    -1263.535    1869.6366   0.61948187   0.49317852    1.2308428  -0.22301094   0.28349297   0.35950203  0.073194457 
  215550       215489    251.82645   -1271.3643    1864.1633   0.62130072   0.48802652    1.2342052  -0.20941856   0.28174049   0.35926134  0.056443243 
  215600       215539    247.76553    -3397.912     1859.793   0.62276068   0.49830678    1.2324527  -0.22136082   0.28695464   0.36664055    0.0660724 
  215650       215589     257.8187    2980.0142    1854.9438   0.62438872   0.46760007    1.2315342  -0.21596961   0.26465561   0.34301633  0.075897739 
  215700       215639    256.87911   -367.47544    1850.8894   0.62575644   0.47063054    1.2317806  -0.21469411   0.25858407    0.3439416  0.082798988 
  215750       215689    249.97566    3129.1174    1848.0851   0.62670598   0.49068112    1.2313758  -0.21775515   0.26668101   0.35744399  0.084311274 
  215800       215739    281.36473   -3115.7757    1847.6835   0.62684221    0.3957933    1.2294959   -0.2206943    0.2414234   0.31524297  0.059821224 
  215850       215789    268.79821   -360.22505    1850.0196   0.62605067   0.43122829    1.2276954  -0.21078411   0.20841346   0.36108175  0.072517186 
  215900       215839    288.70157   -64.884207    1855.9505   0.62405004   0.37087936    1.2263215   -0.2318577   0.20697605   0.32695227  0.068808737 
  215950       215889    275.26538    3698.5516    1861.2573   0.62227075   0.41131264    1.2269424  -0.23557248   0.23761522     0.351027  0.058242902 
  216000       215939    248.05691   -3664.9725    1865.4901    0.6208588    0.4922796    1.2272889  -0.21840834   0.28032818   0.36132904  0.069030727 
  216050       215989    257.28928     -376.401     1868.515   0.61985373   0.46592051    1.2282859  -0.22556282   0.28148078   0.32801979  0.081982761 
  216100       216039    262.27348    1972.5388     1869.359   0.61957387   0.45279455    1.2299285  -0.20586106   0.22343311   0.37293955  0.062282947 
  216150       216089    254.77419   -1197.9784    1869.8881   0.61939853   0.47386522    1.2287782  -0.20487166   0.26220141   0.34028942  0.076246047 
  216200       216139    245.97088    177.61029    1869.6204   0.61948722   0.50119558    1.2300238  -0.21354045   0.26374684   0.36232554  0.088663655 
  216250       216189    241.43406   -5703.2229    1867.4747     0.620199   0.51437685    1.2297622  -0.22739983   0.30845974   0.34883066  0.084486277 
  216300       216239     275.8039    110.76181    1862.4786   0.62186271   0.41054024    1.2277657  -0.19820439   0.24436098   0.29431945  0.070064208 
  216350       216289    284.15767    11.605298    1859.6029   0.62282437    0.3878303    1.2298086   -0.2283638   0.23846311    0.2978336  0.079897391 
  216400       216339    274.04129   -1346.6703     1857.521   0.62352242   0.41730903    1.2293118  -0.21229817   0.24196806   0.33564336  0.051995786 
  216450       216389    260.00499     4201.227    1856.5338   0.62385396   0.45873722    1.2291494  -0.22334807   0.22911257   0.37526199  0.077710738 
  216500       216439    265.22783   -3963.9929    1855.8145   0.62409577   0.44214009     1.228028  -0.22986603   0.26174617   0.33371818  0.076541768 
  216550       216489    265.44674    2236.7304    1854.9843   0.62437509   0.43931152     1.225848  -0.19454806   0.22761912   0.35145654  0.054783928 
  216600       216539    270.12117    4485.7617    1859.4823   0.62286474   0.42723253    1.2276197   -0.2042801   0.22597816   0.34831447      0.05722 
  216650       216589    269.26839   -2735.0918     1865.824   0.62074771    0.4293725    1.2272328  -0.20956663   0.24728996    0.3387963  0.052852876 
  216700       216639    264.47885    1015.0638    1872.2397   0.61862055   0.44042079    1.2240894  -0.20469395     0.245701   0.33137315  0.068040594 
  216750       216689    268.26704   -3314.9255    1876.6815   0.61715638   0.42990462    1.2247979  -0.19816353   0.21870395   0.34413397  0.065230239 
  216800       216739    284.61829   -916.31855    1880.8119   0.61580105   0.38246942    1.2258125  -0.21394395   0.23053557   0.30094563  0.064932167 
  216850       216789    284.52214   -2742.5056    1882.4356   0.61526991   0.38388871    1.2269469  -0.20840148   0.22453608   0.29624395   0.07151016 
  216900       216839     266.9752    84.940002    1881.9595   0.61542556   0.43799418    1.2290596  -0.21217386   0.24239675   0.33506835  0.072702942 
  216950       216889    255.34505    1173.6534    1880.6012   0.61587007   0.47425486    1.2308594  -0.20673611    0.2857586   0.34066117  0.054571215 
  217000       216939    261.08618    489.19693     1880.954   0.61575456   0.45972535    1.2333412   -0.2065052   0.23007838   0.36556905  0.070583127 
  217050       216989    269.99894    175.97654    1881.5921   0.61554574   0.43593942    1.2359644  -0.20250671    0.2411216   0.32066193  0.076662597 
  217100       217039    262.25931    2016.7071     1882.173   0.61535576   0.46194939    1.2390413  -0.21668658   0.30933319   0.31145803  0.057844752 
  217150       217089    255.69679   -5019.1303    1880.6442   0.61585598   0.48103839    1.2386851  -0.21013886    0.2635412   0.34039904  0.087237001 
  217200       217139    271.03097   -248.46262    1877.7902     0.616792   0.43577947    1.2388624  -0.20692195   0.25132192   0.32665461  0.064724889 
  217250       217189    261.24158   -4469.9449    1876.4081   0.61724632   0.46261865     1.236695  -0.20339418   0.26548471    0.3365099  0.064018222 
  217300       217239    278.11839    3548.3885    1875.3644   0.61758981   0.41107886    1.2351623  -0.18535983   0.23446542   0.29699714  0.064976126 
  217350       217289    266.45229    428.01437     1880.147   0.61601884   0.44869444    1.2382105  -0.21658261   0.25999534   0.33342805  0.071853657 
  217400       217339    270.15037    535.21562    1886.2373   0.61402983   0.43746415    1.2379378  -0.19355546   0.25576007   0.31333071  0.061928841 
  217450       217389    267.57427    4993.7253    1895.4828    0.6110348   0.44321156    1.2360521  -0.19791388   0.25569538   0.33146836  0.053961697 
  217500       217439    268.65794   -2795.6307    1907.1468   0.60729776   0.43903909    1.2350906  -0.21303822    0.2414529   0.34476599  0.065858434 
  217550       217489    260.97724    2424.6232    1917.8748   0.60390071   0.46520689       1.2385  -0.18721826   0.27416695     0.322579  0.055679192 
  217600       217539    253.35023    1585.3697    1932.1853   0.59942801   0.48716389    1.2378576  -0.22214776   0.26127628   0.38401489  0.064020483 
  217650       217589    264.92011     -5383.72    1942.4706   0.59625404   0.45338266    1.2383587  -0.20812713     0.253021   0.34805797  0.060430814 
  217700       217639    260.56571    917.39687    1947.7006     0.594653    0.4643641    1.2364378  -0.21041537    0.2476795   0.35323323  0.073866735 
  217750       217689    262.18007   -5287.9168    1946.7096   0.59495571   0.45774337    1.2346005  -0.21016532   0.24286442   0.35368564  0.071358636 
  217800       217739    266.68318    383.15427    1941.0422   0.59669284    0.4425165    1.2327167  -0.20930881   0.24473927   0.34205958  0.065026458 
  217850       217789    235.39721    398.94728    1934.6168   0.59867461   0.53629061    1.2337883  -0.21230926   0.25482276   0.42401638  0.069760734 
  217900       217839    268.41397    3894.3785    1926.0303   0.60134357   0.43835076    1.2336794  -0.19552791   0.23502183   0.34947635  0.049380494 
  217950       217889     251.0535    351.43785    1922.5988    0.6024169    0.4935426     1.237431  -0.21069774    0.2675318   0.38397518  0.052733363 
  218000       217939    260.44987   -253.44989    1917.2062   0.60411133   0.46218045    1.2339109  -0.21010055    0.2480665   0.36098291  0.063231599 
  218050       217989    256.33979   -477.58649    1909.6282   0.60650864   0.47039186    1.2299439  -0.21840764   0.26330989   0.35772261  0.067766999 
  218100       218039    244.20231    2293.4562    1901.3235   0.60915776   0.50338487    1.2269727  -0.20211165   0.26562585   0.38006548  0.059805184 
  218150       218089    237.97865   -2339.0698     1895.896   0.61090164     0.523406    1.2285527  -0.18715736   0.26484631   0.37091193  0.074805118 
  218200       218139    254.26592    177.02113    1896.5671   0.61068546   0.47964852    1.2330555  -0.20759642   0.26105977   0.35672763  0.069457546 
  218250       218189    252.57954   -5568.3127    1900.0367   0.60957031   0.48539967    1.2338098  -0.22336331   0.23879527   0.40555778  0.064409939 
  218300       218239    267.05201    6707.1991    1901.8638   0.60898469   0.44114643    1.2324395  -0.20714526   0.21818531   0.35533897  0.074767421 
  218350       218289    259.51688    276.96834    1904.7482   0.60806252   0.45940454    1.2283705  -0.21381434   0.21500552   0.39735365  0.060859705 
  218400       218339    269.47988    1437.1476    1904.2489   0.60822194   0.42891775    1.2274047  -0.19614858   0.21695646   0.35181633  0.056293538 
  218450       218389    256.84827     1446.965    1907.0309   0.60733466   0.46758765    1.2286463  -0.21254212   0.22638511   0.38795027  0.065794396 
  218500       218439    266.75735    -733.1636    1910.0064   0.60638852   0.43998877    1.2304087  -0.20455315   0.22342109   0.36636861  0.054752219 
  218550       218489    245.03881    1694.1158    1914.9815   0.60481315   0.50512469    1.2311911  -0.20120413   0.27612789   0.36562721  0.064573724 
  218600       218539    260.03677   -1400.9846     1922.361    0.6024914    0.4594307    1.2299371  -0.20595919   0.26364989   0.34781269  0.053927304 
  218650       218589     252.9648   -2716.1666    1929.3451   0.60031042    0.4829065    1.2324582  -0.20052319   0.26384018   0.35936754  0.060221977 
  218700       218639    259.66491   -76.612022    1936.6984   0.59803116   0.46381672    1.2332213  -0.20315888   0.27226631   0.33760153   0.05710777 
  218750       218689    250.08208   -2352.0561    1942.2229    0.5963301   0.49166586    1.2326759  -0.17719288   0.29902991   0.32259495  0.047233884 
  218800       218739    244.89946    6034.4475    1947.3607   0.59475676   0.50897106    1.2346246  -0.17835872   0.27811398   0.34747373  0.061742069 
  218850       218789    249.06021   -4022.1428    1955.5525   0.59226534   0.49758318    1.2355653  -0.21729189   0.27052999   0.36940826  0.074936821 
  218900       218839    257.16044     4711.774     1958.184   0.59146942   0.47363183    1.2356155   -0.1825404   0.23318689   0.36429812  0.058687219 
  218950       218889    269.60893   -5078.4054     1959.912   0.59094795   0.43585441    1.2347238  -0.20226935   0.21790519   0.35454684  0.065671731 
  219000       218939    272.95506    2805.7409     1958.065   0.59150536   0.42639062    1.2351748  -0.18762782   0.18823161   0.34878863  0.076998206 
  219050       218989    258.78472    1541.1298    1954.5045   0.59258292   0.47345575    1.2402522  -0.17869397     0.234952   0.33756121  0.079636512 
  219100       219039    264.64462   -3129.7778     1951.594   0.59346665    0.4613333    1.2454931  -0.20262891   0.24758446   0.35970729  0.056670455 
  219150       219089    272.01798   -3856.3528    1945.2191   0.59541158   0.43841644     1.244424  -0.20639504   0.23775238   0.34522077  0.061838334 
  219200       219139    274.00584   -1384.5932    1935.2381   0.59848242   0.42911533     1.241013  -0.18065241   0.23691636   0.32194298  0.050908393 
  219250       219189    256.90694    949.76291    1926.8218   0.60109657   0.48337918    1.2446117  -0.18431567    0.2565101   0.35133718  0.059847578 
  219300       219239    244.71483    4167.6439    1920.9005   0.60294949   0.52359854     1.248705  -0.18005508   0.29501225   0.34140508  0.067236293 
  219350       219289    254.70688   -3585.0604    1915.4026   0.60468016   0.49366832    1.2483819  -0.20638911   0.30556026   0.32666376  0.067833405 
  219400       219339    271.05347   -1271.7419    1905.1394   0.60793765   0.44041829    1.2435679  -0.21666124   0.28140523   0.31731091  0.058363389 
  219450       219389    281.08368    2507.8988    1892.1306   0.61211736   0.40271445    1.2355843  -0.20390174   0.22896594   0.31962135  0.058028908 
  219500       219439     277.1361   -5006.5892    1882.8431   0.61513675   0.41610197    1.2372748  -0.20338989   0.23774285   0.31983992  0.061909081 
  219550       219489    267.88379    5047.0801    1876.2527   0.61729743   0.44314105    1.2368987     -0.20575   0.26530152   0.32573732  0.057852202 
  219600       219539    250.95984   -5015.5319    1873.8631   0.61808464     0.491693    1.2353039  -0.20941425   0.25475769   0.37265951   0.07369004 
  219650       219589    279.86483   -2466.4436    1871.2151   0.61895929   0.40496183    1.2342201  -0.22858495   0.23041613   0.34282386  0.060306783 
  219700       219639    276.09332     4189.346    1866.0583   0.62066977   0.41301624    1.2310993  -0.22296742   0.22283236   0.33669795  0.076453358 
  219750       219689    236.69242   -3384.3885    1859.6447   0.62281036   0.53293095    1.2342665  -0.21883561   0.28540848   0.39882344  0.067534634 
  219800       219739    250.41698    8058.2665    1852.0073   0.62537872   0.48985249    1.2318548   -0.2165852   0.28372822   0.35250136   0.07020812 
  219850       219789     251.8583   -5296.7327    1844.1877   0.62803042   0.48408832    1.2303614  -0.21785985   0.24665026   0.39044285  0.064855066 
  219900       219839    274.18174    3806.8863    1836.9772   0.63049556   0.41699295    1.2294119  -0.21906128   0.25803103   0.32196687  0.056056332 
  219950       219889    245.59856    -4361.924    1831.7751   0.63228613   0.50090123    1.2286263  -0.19973318   0.26084267   0.35263627  0.087155469 
  220000       219939     261.8241    6043.1536    1829.1935   0.63317848   0.45326715    1.2290695  -0.20440953   0.22410019   0.36810983  0.065466662 
  220050       219989    274.65963   -4687.5111    1827.9663   0.63360356   0.41100281    1.2248377  -0.23041676   0.20681159   0.37527934  0.059328631 
  220100       220039    260.30538    4501.1375    1825.4412   0.63448004   0.44942884    1.2207312  -0.20998303   0.23011226   0.34591214  0.083387475 
  220150       220089    270.58996   -5510.8487    1823.9994   0.63498156   0.41887723    1.2206534  -0.23589528   0.23131168   0.36236643  0.061094397 
  220200       220139    278.35835    5018.3424     1819.604   0.63651541   0.39186898    1.2166635  -0.23308978   0.22153065   0.33416038  0.069267725 
  220250       220189     254.7095   -2427.4504    1812.6904   0.63894307   0.45807175    1.2127931  -0.21696815   0.25222152   0.33608744  0.086730931 
  220300       220239    262.09664    2923.8636    1806.3524   0.64118496   0.43691662    1.2135266  -0.22526713   0.27731293   0.29674199  0.088128836 
  220350       220289    243.89499   -3855.0822    1801.4959   0.64291345   0.49567893    1.2183562  -0.23073579   0.27293775   0.37472348  0.078753496 
  220400       220339    250.17462   -430.08605    1797.2307   0.64443923   0.47904831    1.2203325  -0.22845457   0.27331883    0.3470849  0.087099146 
  220450       220389    239.37187    4054.1584    1793.7059   0.64570563   0.51248218    1.2217571  -0.23562384   0.25983609   0.39400246  0.094267462 
  220500       220439    265.78265    740.62102    1790.5464     0.646845   0.43401024    1.2215421  -0.23439675   0.23080166   0.37088067  0.066724645 
  220550       220489    247.36667   -990.17668    1789.7885   0.64711892   0.48968363    1.2226477  -0.22849521   0.27474621   0.34519559  0.098237047 
  220600       220539    266.80982    2335.1742    1790.0037   0.64704112   0.43412503    1.2247004  -0.23709278   0.26512831   0.34183293  0.064256563 
  220650       220589    259.05384   -7124.6339    1791.2837   0.64657875   0.45584223    1.2234362  -0.24037568   0.25802229   0.36632389  0.071871727 
  220700       220639    267.85145    10085.051    1791.4739    0.6465101   0.42554268    1.2192045  -0.23329835   0.24631441   0.33640997  0.076116641 
  220750       220689    267.57032   -2242.1664    1793.3252   0.64584269   0.42692303    1.2197519  -0.22898824   0.24627993   0.34472644  0.064904898 
  220800       220739    250.55988   -2046.1563    1797.8822    0.6442057   0.47536794    1.2177937  -0.24504762   0.23306386   0.38579112   0.10156058 
  220850       220789    255.47762    1136.1776    1800.1471    0.6433952   0.46390465     1.220902  -0.21638893   0.24110935   0.33356345   0.10562077 
  220900       220839    267.47017   -5104.1933    1802.8384   0.64243471   0.43237174    1.2249038  -0.23526115   0.24395127   0.34911836  0.074563247 
  220950       220889    263.56811    6038.3526    1804.5105   0.64183943   0.44344906    1.2244191  -0.21690125   0.25591035   0.33081609  0.073623874 
  221000       220939    249.63873   -2174.2614    1807.0739   0.64092896   0.48411293    1.2238092  -0.22368801   0.24628488   0.36637053  0.095145528 
  221050       220989    264.83948    -287.7038     1808.396   0.64046035   0.44084131    1.2255785   -0.2320815   0.25676726   0.34456954  0.071586006 
  221100       221039    249.00993    1822.6806    1808.7266    0.6403433   0.48723903    1.2250722  -0.22944479   0.26886998   0.38388254  0.063931294 
  221150       221089    238.40985    110.15703    1808.8937   0.64028414   0.51597216    1.2223966  -0.22010764   0.25607068   0.39490662  0.085102494 
  221200       221139      251.964   -1448.9982     1810.249   0.63980478   0.47585238    1.2224386  -0.23372734   0.28201536   0.36431368  0.063250678 
  221250       221189    253.61826    3192.2455    1809.5062   0.64006742   0.46772102    1.2192089  -0.21169254   0.26010478   0.33955002  0.079758757 
  221300       221239    275.36873   -3648.0355    1808.4257   0.64044986   0.39663718    1.2125732  -0.23798881   0.25116539   0.32347405  0.059986553 
  221350       221289    267.78103    1221.0921    1803.7785   0.64209988   0.41311984     1.206573  -0.21965339   0.26143157   0.29923797  0.072103698 
  221400       221339    270.92743    2527.1059    1799.2621   0.64371164   0.39991247    1.2026886  -0.22748775   0.24233174   0.32409466  0.060973826 
  221450       221389    262.80214   -1583.4356    1796.2246   0.64480019   0.42153546    1.2002359  -0.23096754   0.23069138   0.34910656  0.072705062 
  221500       221439    246.09645    5245.4857    1794.4975   0.64542077    0.4697376    1.1989379  -0.21628897    0.2363385   0.37094775  0.078740321 
  221550       221489    265.45567   -6568.8171    1794.2991   0.64549215   0.41218879    1.1987518  -0.22260325   0.22453989   0.32684002  0.083412134 
  221600       221539    266.66309     5047.924    1794.6597   0.64536244   0.40849805    1.1986387  -0.21628247   0.22952323    0.3172457   0.07801159 
  221650       221589    259.59739   -204.07115    1796.6934   0.64463197   0.43303022    1.2022347  -0.23050947   0.22936461   0.36695303  0.067222048 
  221700       221639    265.58236     2982.949    1800.9174   0.64311998   0.41690431    1.2038427  -0.24071385   0.23880148   0.33700992  0.081806757 
  221750       221689    267.95228    779.81003    1803.0322   0.64236565   0.40770295    1.2016635  -0.24073641   0.23809039   0.34555305  0.064795924 
  221800       221739    273.84521   -4106.4705    1802.9083   0.64240982   0.38816855    1.1995903   -0.2434492   0.24694389   0.31389694   0.07077692 
  221850       221789    259.31471   -1949.5741    1799.8189   0.64351252    0.4292863    1.1976532  -0.22911492   0.27195652   0.31504516  0.071399544 
  221900       221839    265.80509    3637.3285    1796.5529   0.64468237   0.40748327    1.1950816  -0.22353351   0.23853774   0.32591553  0.066563507 
  221950       221889    253.37493   -3085.9098    1795.7793   0.64496009    0.4445768    1.1953437  -0.23916199   0.27903604   0.33258607  0.072116687 
  222000       221939    247.24346   -2033.8131      1794.61   0.64538032   0.46277629    1.1953752  -0.21455066   0.24239683   0.34899372  0.085936396 
  222050       221989    261.38642    156.17332    1794.7966   0.64531322   0.42295944     1.197465  -0.23846992   0.25763184   0.34370891  0.060088604 
  222100       222039    279.79819   -1543.2043    1795.4827   0.64506662   0.36735978    1.1964206  -0.22918872     0.217355   0.31361589  0.065577616 
  222150       222089    250.88389    6278.1448    1798.4155   0.64401468   0.45523904    1.1986249  -0.23911918   0.24854967   0.37386498  0.071943572 
  222200       222139     261.2395    776.22845    1801.7764   0.64281339   0.42369168    1.1977619  -0.23270302   0.23009747   0.36152171  0.064775525 
  222250       222189    266.25623   -481.68015    1805.0242   0.64165675   0.40881236    1.1977474  -0.23625351   0.22895437   0.35151078  0.064600719 
  222300       222239    254.04821   -681.45407    1809.4364   0.64009213   0.44481434    1.1975762  -0.21598548   0.24268281   0.36201753  0.056099476 
  222350       222289    270.62277    1258.8995     1816.241     0.637694   0.39598998    1.1978634  -0.22215157   0.22585476   0.33441972   0.05786707 
  222400       222339    248.93688   -634.21363    1823.7547   0.63506674   0.46054335      1.19816  -0.21460892   0.21207181   0.39764817  0.065432286 
  222450       222389     266.3076    1579.6921    1831.6335     0.632335   0.41022332    1.1993106  -0.20781794   0.20186832   0.32721834    0.0889546 
  222500       222439    278.04768   -6107.8283     1839.819   0.62952168   0.38156757    1.2054415  -0.21766183   0.23351235   0.30918105  0.056536001 
  222550       222489    283.53179    501.62426      1846.38   0.62728473   0.36607128     1.206195  -0.22838911    0.2178465   0.31527306  0.061340834 
  222600       222539    263.47579    4718.8323    1849.3258   0.62628551   0.42780459     1.208501  -0.21920476   0.25206873    0.2869857   0.10795492 
  222650       222589    249.69433    823.11058    1849.9402   0.62607751   0.47457923    1.2144403  -0.22588162   0.27008405   0.35094286  0.079433942 
  222700       222639      268.846   -4553.6333    1846.4365   0.62726552   0.41795053    1.2145593  -0.22623069   0.26937843   0.28757713   0.08722566 
  222750       222689    260.92004   -615.71132    1839.8833   0.62949971   0.44158478    1.2147084  -0.22700043   0.28839027    0.3009535  0.079241444 
  222800       222739    266.07516   -3350.2383    1832.5451   0.63202043   0.42472273    1.2131213  -0.21910138   0.28221892   0.28563687  0.075968325 
  222850       222789    269.22645    2392.2601    1828.4299   0.63344292   0.41804404    1.2157801  -0.24213751   0.26843037   0.31465618  0.077094996 
  222900       222839    263.87122   -3350.8151    1822.7913   0.63540239   0.43161092    1.2134791  -0.22712638   0.23321577   0.34405205  0.081469487 
  222950       222889    283.13227    365.14054     1818.177   0.63701499   0.37426014    1.2132001  -0.22129755   0.23174156   0.30071225  0.063103878 
  223000       222939    256.88593    1091.6691     1816.776   0.63750619   0.45212509    1.2132953  -0.21551681   0.24550813   0.34005681  0.082076963 
  223050       222989     255.0689    3378.1858    1820.6943   0.63613424   0.46070104    1.2164873  -0.21209612   0.25004569   0.35642698  0.066324495 
  223100       223039    270.94604    310.78525    1829.7581   0.63298311   0.41257182    1.2154031  -0.22247279   0.24123134   0.32349809  0.070315176 
  223150       223089     271.2712    1732.3166     1839.089   0.62977157   0.41105019     1.214845  -0.22746458   0.22693874   0.34296572  0.068610299 
  223200       223139    261.35083   -3599.4523    1847.3238   0.62696426   0.43994944    1.2143495  -0.23844132   0.26110242   0.35975533  0.057533015 
  223250       223189    260.40833    1898.1488    1852.4143   0.62524131    0.4395548    1.2111622  -0.21993959   0.23097236   0.35186251  0.076659521 
  223300       223239    258.90601    -1919.662    1856.4188   0.62389261   0.44515816    1.2123141  -0.21791329   0.24947199   0.35248026  0.061119199 
  223350       223289    265.42396   -2456.0089    1858.8876     0.623064   0.42565915    1.2121282  -0.22928351   0.23643835   0.35225354   0.06625077 
  223400       223339    255.74678    788.43383     1858.523   0.62318624   0.45360862    1.2114035  -0.21141969    0.2621164   0.31824866  0.084663256 
  223450       223389    255.45495   -1202.4101    1856.9344   0.62371937   0.45558648    1.2125167  -0.21015225   0.24721218   0.36610293  0.052423619 
  223500       223439     272.9841   -762.69084    1854.8911   0.62440646   0.40286404    1.2117343  -0.22351998    0.2236364   0.33307119  0.069676422 
  223550       223489    277.42245    3040.9619    1852.9306   0.62506709   0.38943732    1.2114587  -0.21781035   0.21997789   0.32729783  0.059971948 
  223600       223539    261.22049   -1382.5839    1854.2599   0.62461901   0.44037443    1.2143883  -0.18742858   0.22196016   0.33451851  0.071324336 
  223650       223589     257.4543    1115.7063    1859.7731   0.62276736   0.45719949    1.2200539  -0.21480185   0.25761686    0.3337841  0.080600391 
  223700       223639    265.46992    1827.6936    1866.3716   0.62056559   0.43303181     1.219637  -0.21381045   0.24562661   0.32828187  0.072933793 
  223750       223689     264.5119   -4533.3373    1872.8762   0.61841033   0.43731787    1.2210844     -0.20975   0.24069331   0.32731523  0.079059316 
  223800       223739    271.30634    5428.0591    1877.2272   0.61697697   0.41901298    1.2229119  -0.22348067   0.22926437   0.33411159  0.079117695 
  223850       223789    264.89487    -595.8772    1878.9878   0.61639886    0.4382894    1.2231907  -0.21077103    0.2120759   0.36690751  0.070077016 
  223900       223839    262.94268   -556.84074    1879.0325   0.61638422   0.44636713    1.2254839  -0.21528663   0.25096698   0.34063611  0.070050674 
  223950       223889    267.49761      542.009    1875.3838   0.61758344   0.43094777    1.2235611  -0.21056989   0.24806715   0.32101896  0.072431554 
  224000       223939    259.15432   -6382.6272    1868.5453   0.61984368   0.45283862    1.2207303  -0.22251584   0.23922871    0.3676901  0.068435656 
  224050       223989    254.42147    1781.4623     1859.055    0.6230079   0.46642278    1.2202907  -0.19140832    0.2329645   0.35339135  0.071475251 
  224100       224039     266.8432    746.02037    1852.4503   0.62522916   0.43013748    1.2208118  -0.22383854   0.24523798   0.35012568  0.058612362 
  224150       224089    264.66306   -5760.6006    1845.8135   0.62747724   0.43696566    1.2211801  -0.22436044    0.2544619   0.33427191  0.072592293 
  224200       224139    246.39729    709.67179    1839.6653   0.62957429   0.48980935    1.2199011   -0.2268563   0.27270636    0.3715729    0.0723864 
  224250       224189    240.80759   -2612.6282    1835.7744   0.63090865   0.50507985    1.2186089  -0.20681705   0.25024246   0.38745094   0.07420349 
  224300       224239    262.46483    940.63715    1836.1454   0.63078118   0.44115586    1.2188568  -0.22891283   0.21909866   0.37767843  0.073291594 
  224350       224289    271.35009    4065.8775    1836.0375   0.63081827   0.41320552     1.217234  -0.23808046   0.21580997   0.35709859  0.078377412 
  224400       224339    252.28657    838.04393    1834.7415   0.63126386   0.46739714    1.2149392   -0.2173826     0.232983   0.37552491  0.076271832 
  224450       224389    263.79947    5203.8056    1835.1213   0.63113319   0.43004641    1.2117019  -0.22819239   0.21648252   0.36166995  0.080086328 
  224500       224439    264.94999   -1957.7837    1836.4745   0.63066815   0.42454037     1.209605  -0.22677052   0.20988018   0.36204313  0.079387588 
  224550       224489    284.54975    333.91529    1836.5755   0.63063346   0.36656042    1.2097004  -0.23189427   0.21349622    0.3049621  0.079996375 
  224600       224539    253.07461    1609.6497     1836.538   0.63064634   0.46111824    1.2109953  -0.20960968   0.24286238   0.36289874  0.064966793 
  224650       224589    250.33157   -6989.8577    1838.5898   0.62994257   0.47237371     1.214123  -0.22231937   0.28478444    0.3178031  0.092105551 
  224700       224639    248.72477   -989.09328    1839.6025   0.62959578   0.48116973    1.2181579  -0.21902748   0.26882043   0.36134888  0.070027901 
  224750       224689    250.90938    1063.3562    1839.5026   0.62962998   0.47569092    1.2191522   -0.2128471     0.266993   0.34026784  0.081277186 
  224800       224739    255.07312   -2549.5588    1840.5017   0.62928819   0.46676104    1.2225598  -0.21992415    0.2475192   0.36468115  0.074484846 
  224850       224789     258.5587    4623.2526     1840.371   0.62933289    0.4575221    1.2236489  -0.22134201    0.2466506   0.34530758  0.086905939 
  224900       224839    265.57212    -1873.969    1840.7889   0.62919001   0.43902448    1.2259325  -0.21825755   0.22328734    0.3701564  0.063838287 
  224950       224889    268.77175    4136.0346     1840.675   0.62922892   0.42572871    1.2221174  -0.21376429   0.21125473   0.34186148  0.086376792 
  225000       224939    255.04817    379.39177     1841.321   0.62900817   0.46788536    1.2236102  -0.21553035   0.22503997    0.3908816  0.067494133 
  225050       224989    268.56267    755.81433    1842.5873   0.62857591   0.43078979     1.226559   -0.2135333     0.232075   0.34186414  0.070383947 
  225100       225039    263.81821    472.96448     1844.258   0.62800647   0.44591111    1.2276222  -0.22069709   0.24740733   0.33144657  0.087754301 
  225150       225089    257.34076   -1595.9986    1845.3393   0.62763848   0.46660647    1.2291244  -0.19514179   0.24333049   0.34137615  0.077041619 
  225200       225139    268.57031   -3607.2108    1848.4607   0.62657862   0.43289682    1.2286887  -0.22076749   0.26802523   0.30442259  0.081216482 
  225250       225189    262.88755    410.41652    1852.4817   0.62521859   0.45207435    1.2310278  -0.22050054   0.26002279   0.33026596  0.082286151 
  225300       225239      270.766   -1664.1008    1856.1563   0.62398084   0.42892018     1.231218  -0.24499439   0.25718076   0.32492071  0.091813101 
  225350       225289     258.1138    548.09031    1856.0685   0.62401035   0.46781915    1.2326277  -0.20981475    0.2528283   0.35797602  0.066829583 
  225400       225339    266.56375    372.92538    1858.1058   0.62332615   0.44378004    1.2336263  -0.23540066   0.24432455   0.33673561  0.098120549 
  225450       225389    265.71867    504.65667    1856.3182   0.62392641   0.44496325    1.2323055  -0.20653792    0.2551889   0.32707937  0.069232905 
  225500       225439    267.70195   -2836.8937    1853.2967   0.62494363   0.43805992    1.2312788  -0.24531856   0.24291442   0.35741442  0.083049629 
  225550       225489    268.59599    4062.3955    1847.2597     0.626986   0.43268849    1.2285565  -0.21211448   0.22587235   0.33030039  0.088630235 
  225600       225539    270.72446   -2947.0346     1843.001    0.6284348   0.42738112    1.2295559  -0.23879279   0.27744521   0.32449783  0.064230866 
  225650       225589    278.35864    866.03932    1837.9502   0.63016178   0.40133099    1.2261263  -0.22383252   0.22055265   0.31532564  0.089285222 
  225700       225639     276.2314   -3004.2086    1833.2233   0.63178665   0.40822475    1.2267169  -0.23794336   0.25709536   0.31537871  0.073694044 
  225750       225689     259.7527    -1467.268    1829.2232   0.63316821   0.45667747    1.2263422  -0.21098682   0.23728381   0.36965544  0.060725039 
  225800       225739     262.7611     3826.743    1828.8961   0.63328145   0.44748203    1.2260608  -0.22959359   0.25592925   0.33207573  0.089070644 
  225850       225789    258.51665   -3651.1986      1831.66   0.63232585   0.46000423    1.2260064  -0.20160162   0.26007963   0.32578574  0.075740485 
  225900       225839    259.25865    5563.5582    1837.9758     0.630153    0.4581864    1.2263872  -0.23311329   0.27440167   0.33322973  0.083668283 
  225950       225889    234.42695   -591.63494     1845.768   0.62749273   0.53296782    1.2275906   -0.2062493   0.26280981   0.37799504  0.098412275 
  226000       225939    242.24354    2063.4085     1852.189   0.62531738   0.51317015     1.230954  -0.23168652   0.26164654   0.38451547  0.098694656 
  226050       225989    257.44707    4278.9378    1855.9988   0.62403378   0.46840435    1.2312373  -0.20876425   0.24711509   0.34831784  0.081735664 
  226100       226039     257.8197    70.796593    1860.3551   0.62257251    0.4660498    1.2299869  -0.22341416   0.23585578   0.35504544  0.098562735 
  226150       226089    251.08089   -2747.7786    1864.1795   0.62129529   0.48566199    1.2296315  -0.20513778   0.24008674   0.36110924   0.08960378 
  226200       226139     265.3178    2223.5444    1869.6677   0.61947155   0.44580932    1.2319638  -0.20022123   0.22699896   0.33742007  0.081611533 
  226250       226189    264.61453   -5168.3309    1874.8541   0.61775792   0.44940357    1.2334742  -0.22261642   0.22996332   0.34917669   0.09287998 
  226300       226239     278.8438    5186.9828    1876.7948   0.61711914   0.40483066    1.2310636  -0.20086551   0.20209315   0.32698173  0.076621301 
  226350       226289    266.97132   -5539.9962    1876.2307   0.61730466   0.44075496    1.2318089  -0.22306995   0.25754385   0.31372895  0.092552107 
  226400       226339    271.80027    3581.9715    1872.3695   0.61857768   0.42671929    1.2320817  -0.20062991   0.23918416   0.33053557  0.057629469 
  226450       226389    259.26948    331.20367    1869.8697   0.61940465   0.46568271    1.2339156  -0.20951324   0.25438797   0.33617666  0.084631325 
  226500       226439    261.62195   -1896.4266    1867.7977   0.62009175   0.45936356     1.234567  -0.21815555   0.25063757   0.36065772  0.066223829 
  226550       226489    261.16011    6701.6619    1866.5206   0.62051604   0.45924519    1.2330801  -0.20357411   0.26070046   0.32194447  0.080174371 
  226600       226539    252.83259    -8509.207    1868.4904   0.61986188   0.48497106     1.234131  -0.23038671    0.2684523   0.39207606  0.054829416 
  226650       226589    263.04601    7279.6484    1869.9274   0.61938552   0.44975811    1.2291811  -0.21586205   0.24845779   0.33885514  0.078307237 
  226700       226639    236.91707   -4604.6354    1873.9612   0.61805228   0.52520317    1.2272043  -0.21323771   0.24571749   0.42592212  0.066801276 
  226750       226689    244.17055     5500.401    1877.0707   0.61702842   0.50234972    1.2258434   -0.2018325   0.23548075   0.39718761  0.071513852 
  226800       226739    257.63987   -2081.4571    1881.2155   0.61566896   0.46360826    1.2270125  -0.21045133   0.26053048   0.33766433  0.075864766 
  226850       226789    261.29969     -600.025    1882.5271      0.61524   0.45227127    1.2265198  -0.21232694    0.2392087   0.35979063  0.065598884 
  226900       226839    266.61782   -14.525358    1881.3349   0.61562988   0.43492682    1.2249333  -0.20461526   0.27139793   0.29138176  0.076762394 
  226950       226889    262.37566    1421.7816    1880.2258   0.61599301   0.45131952    1.2287562  -0.20913662   0.24362738   0.34540626  0.071422499 
  227000       226939    267.35023   -5419.9958    1877.9139   0.61675136   0.43684474    1.2290214  -0.21876152    0.2484454   0.34000095  0.067159902 
  227050       226989    268.03989    4483.4103    1873.7578   0.61811936   0.43328827    1.2275084  -0.20141453   0.23252054   0.31469132  0.087490937 
  227100       227039    261.80682   -8526.7044    1871.7515   0.61878193    0.4561502    1.2319014  -0.21679767   0.25580949   0.34422982  0.072908553 
  227150       227089    261.39215    3855.6893    1870.7966   0.61909776   0.45782993    1.2323524  -0.21036734    0.2476311   0.33768169  0.082884479 
  227200       227139     241.8853   -1981.3343    1871.4522   0.61888088    0.5192812    1.2360036  -0.19720216   0.26547647   0.36929754  0.081709355 
  227250       227189     252.6987    3594.0077    1873.8185   0.61809933   0.48941917    1.2381824  -0.20537024   0.25616951   0.36230174  0.076318152 
  227300       227239     261.1219   -440.11578    1878.0945   0.61669205   0.46563135    1.2393531  -0.21614262   0.25088413   0.35750058  0.073389268 
  227350       227289    255.96665   -892.70013    1879.9038   0.61609852   0.47863179    1.2370782  -0.20632032   0.24805296   0.36695577  0.069943383 
  227400       227339    247.45432    1306.9501    1879.2315   0.61631894   0.50251169    1.2357354  -0.19233235    0.2542894   0.36866142  0.071893206 
  227450       227389    253.55404   -3694.7586    1879.2895   0.61629991    0.4823743    1.2336719  -0.19808325   0.26244876   0.35023597  0.067772809 
  227500       227439    247.93163    4362.1566    1877.9233   0.61674828   0.49744342    1.2320815  -0.18726459    0.2306979   0.36734857  0.086661526 
  227550       227489    257.53182     -5712.48    1876.9434   0.61707028   0.47111052    1.2341946  -0.20300488    0.2296764   0.36029271  0.084146289 
  227600       227539    257.58835    -1089.924    1875.4388   0.61756531    0.4735838    1.2368354   -0.1945778   0.28034597   0.30605635  0.081759274 
  227650       227589    271.32359    662.50039    1875.9988   0.61738099   0.43351608    1.2374661  -0.22560878   0.23635045   0.33643737  0.086337037 
  227700       227639     269.7947    2488.4789    1875.6615   0.61749199   0.43725981    1.2366796  -0.22345945    0.2414335   0.33391964  0.085366128 
  227750       227689    267.95934   -1614.4361    1875.1567   0.61765824   0.44335277    1.2373343  -0.22415436   0.24764498   0.32454834  0.095313808 
  227800       227739    269.43195      278.097    1874.9929   0.61771217   0.43906622    1.2374112  -0.21148104   0.25337534   0.30684747  0.090324454 
  227850       227789     254.7601   -145.73045    1876.2507   0.61729809   0.48354226    1.2384135  -0.18705525   0.21926626   0.36068516  0.090646086 
  227900       227839    247.14138   -44.808001    1878.6303   0.61651619   0.50770877    1.2400053   -0.2024307   0.24006147   0.37505047  0.095027529 
  227950       227889    257.87807    2668.0952     1879.585   0.61620303   0.47451738    1.2386274  -0.19675218   0.22048774    0.3594068  0.091375026 
  228000       227939    266.72404   -4079.6008     1880.278   0.61597591   0.45007676     1.240398  -0.22018234   0.23555837   0.36235829  0.072342424 
  228050       227989    253.72732    3436.2523    1879.5288   0.61622145   0.48683697    1.2386481  -0.20759244   0.26588029   0.32803113   0.10051799 
  228100       228039     252.9103   -5507.3428    1878.6881   0.61649722   0.49242935    1.2418196  -0.19500012   0.23902378   0.36372419  0.084681507 
  228150       228089    271.27435     4258.108    1878.6712   0.61650275    0.4370022    1.2408063  -0.22371156   0.24842053   0.33572262   0.07657061 
  228200       228139    262.03588   -1806.1676    1876.9452   0.61706969   0.46302286    1.2394528  -0.20697859   0.24389802   0.35300746  0.073095968 
  228250       228189    272.21104    2539.5525    1878.1287   0.61668083   0.43210548    1.2386851  -0.21992415   0.24783426   0.34076438   0.06343099 
  228300       228239    262.71601   -339.20332     1881.654   0.61552548   0.45747614    1.2359213  -0.20820547   0.22112999    0.3659115  0.078640119 
  228350       228289    269.48117   -1973.5738    1885.9296   0.61413001   0.43536105    1.2338519   -0.2118473   0.23901042    0.3413796  0.066818336 
  228400       228339    245.33473   -657.28553    1888.3215    0.6133521   0.50730931    1.2342526  -0.21056726   0.28332211   0.36256673  0.071987729 
  228450       228389    271.12158    981.68145    1887.8623   0.61350129   0.43014732    1.2334988    -0.201651   0.26037791   0.31886047  0.052559941 
  228500       228439    271.23208   -2698.0252    1887.3596    0.6136647    0.4262231     1.229902  -0.22281867   0.22390796    0.3466056  0.078528213 
  228550       228489     277.4687    668.96393    1884.2612   0.61467377   0.40569887    1.2278573  -0.21846027   0.23540349   0.32476826  0.063987399 
  228600       228539    256.81529   -3005.4853      1879.02   0.61638833   0.46735369    1.2283147   -0.1934325   0.24413164   0.36309116   0.05356339 
  228650       228589    269.80691    5387.4715    1875.4787   0.61755219   0.42674343    1.2261994   -0.1963794   0.19527389   0.36722703   0.06062191 
  228700       228639    275.55339   -1973.1049    1875.6416   0.61749854    0.4122158     1.228699  -0.20362874   0.23117813   0.33393318  0.050733236 
  228750       228689    265.72856    4176.4061    1880.4533   0.61591849   0.44165739     1.229029  -0.20544932   0.26329532   0.32399041   0.05982099 
  228800       228739    252.36963   -5592.4033    1888.1228   0.61341666   0.48247489    1.2302631  -0.20516572   0.25680582   0.35954797  0.071286815 
  228850       228789      268.519     2391.068    1894.4229   0.61137668   0.43303343    1.2286732  -0.20590077    0.2279238   0.34995759  0.061052816 
  228900       228839    269.90782   -2067.6607    1898.4485   0.61008028   0.42619636    1.2259513   -0.2152839   0.23303062   0.34504356  0.063406075 
  228950       228889    278.84584    2468.0681    1899.8547    0.6096287   0.39932581    1.2255648  -0.18545052   0.22822714    0.2984006  0.058148596 
  229000       228939    247.57956   -2732.5767    1902.8237   0.60867749   0.49513492    1.2287298  -0.18995411   0.22681518   0.38244352  0.075830335 
  229050       228989    266.14699    2148.7876    1908.6433    0.6068216   0.44540189    1.2340133  -0.19049746    0.2082352   0.36157062  0.066093531 
  229100       229039    240.07858    -1410.256    1914.6127   0.60492964   0.52625074    1.2376197  -0.19270121   0.25267388   0.39184714  0.074430916 
  229150       229089    250.20717    5663.5977    1920.4954   0.60307666   0.50014664    1.2415273  -0.18575173   0.25170793   0.35546519   0.07872524 
  229200       229139    261.89106   -3305.8263    1926.9274   0.60106361   0.46877924      1.24478  -0.20930445   0.25296838   0.36780135  0.057313956 
  229250       229189     258.2179    1329.4836    1931.1984   0.59973433   0.47910111    1.2442181  -0.19772488   0.23908488   0.37509603  0.062645088 
  229300       229239    240.85017   -828.28875    1934.1724   0.59881216   0.53069679     1.244352  -0.19616798   0.27380926   0.38070231  0.072353198 
  229350       229289    247.98282    463.62672    1934.6132   0.59867574   0.50917145    1.2439612  -0.18204837   0.22389399   0.38993197  0.077393857 
  229400       229339    256.14219    2003.3625    1932.5268   0.59932208   0.48408438    1.2430509  -0.21241454   0.25151262   0.36487245  0.080113839 
  229450       229389    256.44486   -2464.3262    1927.9477   0.60074555    0.4808538    1.2407171  -0.20279108   0.23062602   0.38624923  0.066769629 
  229500       229439    256.65667    1409.0318    1922.7628   0.60236549   0.47851914    1.2390101   -0.1956565   0.24218378   0.35601086  0.075981007 
  229550       229489    265.98765   -3663.8127    1919.5274   0.60338079   0.45175788    1.2398971  -0.21552495   0.23085363   0.37221387  0.064215339 
  229600       229539    254.85825    2227.8105    1916.8946   0.60420951   0.48287199    1.2380341  -0.18350121   0.24433376    0.3601793  0.061860125 
  229650       229589    253.92251    919.16347    1917.0358   0.60416503   0.48573564    1.2381251  -0.19823805   0.24327424    0.3626648  0.078034651 
  229700       229639    240.58757   -1516.6551    1917.5337   0.60400815   0.52945471    1.2423318  -0.17772899   0.27569215   0.35599106  0.075500477 
  229750       229689    261.26566   -2938.8441    1916.8948   0.60420946   0.47291535    1.2470631  -0.21268359   0.25232996    0.3534542  0.079814786 
  229800       229739    250.87433    1177.3038    1913.7033    0.6052171   0.50444985    1.2478073  -0.19401522   0.26707301   0.35988836    0.0715037 
  229850       229789    254.62332    633.32209    1911.0211   0.60606656   0.49526714    1.2497331  -0.22139593   0.24404942   0.38949266  0.083120981 
  229900       229839    277.30506    3228.1359    1905.9018   0.60769446   0.42496766    1.2466412   -0.2070695    0.2137667   0.35442484  0.063845621 
  229950       229889    258.22607   -3946.1589    1901.6074   0.60906681   0.47954677     1.244688  -0.23932626   0.23444941   0.41042149  0.074002134 
  230000       229939    258.45123     4249.844     1891.459   0.61233468   0.47732767     1.243136   -0.1976503   0.21283008   0.38046061  0.081687278 
  230050       229989    267.88605    2496.7318    1884.4309   0.61461844   0.45062293    1.2443873  -0.19622269   0.22315889   0.37581093  0.047875799 
  230100       230039    270.79654    2047.6402    1878.4029    0.6165908   0.44195953    1.2443479  -0.21463701   0.23620868   0.34247314  0.077914716 
  230150       230089    262.10186   -3702.2575    1873.1693   0.61831354   0.46938262     1.246008  -0.21566256   0.27173582    0.3427757  0.070533664 
  230200       230139    253.78808   -41.183057    1867.7779   0.62009832    0.4922607    1.2442518  -0.22318771   0.25605681   0.37754704  0.081844549 
  230250       230189    241.77798   -3892.7693    1860.1399   0.62264454   0.52434686    1.2407512  -0.22989473    0.2538887   0.42319866  0.077154233 
  230300       230239     254.0541    2708.3696    1850.8997   0.62575297   0.48614575    1.2389251  -0.20890654   0.25653542   0.36412243  0.074394431 
  230350       230289    258.34936   -1856.3319    1845.9325    0.6274368   0.47489084    1.2403973  -0.22101392   0.27334222   0.35730539   0.06525715 
  230400       230339    238.77681    3015.1882     1843.182   0.62837308   0.53432541    1.2418371  -0.19764495   0.26230008   0.40867629  0.060993999 
  230450       230389    259.86936   -500.98117    1846.7363   0.62716369   0.46884547    1.2388558  -0.21835668   0.23354488    0.3819135  0.071743769 
  230500       230439    249.32248     2825.088    1850.5993   0.62585453    0.5020413    1.2408005   -0.1990375   0.25384877   0.36414825  0.083081775 
  230550       230489    260.06115    1706.6524    1855.4007   0.62423496   0.47140023    1.2419789   -0.2086045   0.25761172    0.3470886  0.075304418 
  230600       230539    259.15075   -3626.7771    1860.2243    0.6226163   0.47296664    1.2408477  -0.22735346   0.26385653   0.35273541  0.083728158 
  230650       230589    270.06066    2690.0833     1862.452   0.62187158   0.43905115     1.239259   -0.2169055   0.23869838   0.35128737    0.0659709 
  230700       230639    271.33192   -6329.6648    1864.4121   0.62121779   0.43285364    1.2368283  -0.22155265   0.23213824   0.35427804  0.067990012 
  230750       230689    273.52089    3937.2874    1864.1697   0.62129857   0.42442928      1.23489   -0.2262865   0.25054033   0.33471614  0.065459316 
  230800       230739    268.75711   -2633.6333    1862.2654   0.62193389   0.43607363     1.232419  -0.20696943   0.21662185   0.36852999  0.057891209 
  230850       230789    269.66536    2715.4782    1861.6633   0.62213505   0.43138119    1.2304178  -0.21354166   0.19657839    0.3716793  0.076665157 
  230900       230839    266.02805   -971.39349    1862.0406   0.62200897   0.44613615    1.2343951  -0.21448211   0.21553319   0.36874848  0.076336586 
  230950       230889    253.23716   -1967.3101     1862.014   0.62201785   0.48692144    1.2372802  -0.22319645   0.25017088   0.39179441  0.068152597 
  231000       230939    254.07459    1374.3574    1859.3896   0.62289581   0.48364074    1.2364808  -0.20150366   0.25292098   0.36765829  0.064565132 
  231050       230989    262.26571   -1569.6255    1856.8973   0.62373184   0.45940017    1.2365111  -0.21749739   0.24500778   0.36375682  0.068132964 
  231100       231039    258.30416    -533.2823    1854.1079   0.62467021   0.47158373    1.2369563   -0.2159693   0.26999693   0.35781525  0.059740859 
  231150       231089     261.3998    4037.1202    1852.2537   0.62529554    0.4621178     1.236663  -0.21404215   0.23450276   0.35806148  0.083595709 
  231200       231139    252.81482   -2858.9046    1851.7064   0.62548034    0.4878595    1.2369668  -0.20983434   0.24837604   0.38835072  0.060967085 
  231250       231189    250.27493    904.39212    1850.6507   0.62583717   0.49354555     1.235127  -0.22638133   0.25406027   0.39990694  0.065959674 
  231300       231239    266.92664    1275.0294    1848.7177   0.62649153   0.44112919    1.2320507  -0.21722292   0.22244806   0.36685929  0.069044764 
  231350       231289    265.64247   -302.55403    1846.8168   0.62713637   0.44387434    1.2309908  -0.24159868   0.21610797   0.39669234  0.072672708 
  231400       231339    249.43612    1426.5271    1840.2528    0.6293733   0.48918282    1.2282788  -0.21174042   0.22457241   0.41321326  0.063137568 
  231450       231389    267.04158   -2041.2612    1835.0663   0.63115211   0.43530525    1.2265674  -0.21075705   0.20836581   0.37726474  0.060431753 
  231500       231439    251.70676   -2133.4044     1830.472   0.63273624   0.48204389    1.2278679  -0.20970063     0.228593   0.38919307  0.073958439 
  231550       231489    276.63975    3053.8918    1827.6237   0.63372234   0.40942635    1.2291285  -0.23214919   0.21891172   0.37352978   0.04913403 
  231600       231539    260.25676   -4301.6951    1825.1079   0.63459589   0.45552056    1.2266788  -0.23925002   0.22860764   0.38306476  0.083098191 
  231650       231589    261.27601     6081.969    1819.5281   0.63654197   0.45136968     1.225548  -0.23102381   0.21648164   0.40746603  0.058445814 
  231700       231639    246.86122    -6157.219     1814.589   0.63827454   0.49411081    1.2255772  -0.22017693   0.23784109   0.38721668  0.089229972 
  231750       231689    253.50254    6852.3324    1809.9259   0.63991898   0.47831957    1.2294646  -0.24249639   0.24116956   0.39793544  0.081710961 
  231800       231739    254.75594   -6162.7637    1802.0124    0.6427292    0.4721539    1.2270128  -0.25760804   0.24518698   0.38776209  0.096812871 
  231850       231789    271.35879    4886.8572    1790.6188   0.64681882   0.41703987    1.2210942  -0.25143555    0.2207083   0.38083519  0.066931924 
  231900       231839    253.23888   -8406.7743    1778.2045    0.6513345   0.46807339    1.2184372   -0.2414015   0.25054188   0.38118253  0.077750479 
  231950       231889    284.51232    1005.4077    1768.0476   0.65507623   0.37042632    1.2134554  -0.23808115   0.21019612   0.33341087  0.064900473 
  232000       231939    258.11209   -3103.8458    1760.1235    0.6580254   0.45049069    1.2152941  -0.24396225   0.26946376   0.33828046  0.086708727 
  232050       231989    275.77952    5103.9636    1753.4878   0.66051557   0.39651019    1.2136634  -0.21470633   0.21493198   0.32947103  0.066813513 
  232100       232039    290.32818   -1417.7142    1754.7127   0.66005446   0.35313254    1.2133944  -0.23266803   0.21883648   0.30000162  0.066962471 
  232150       232089    280.43232   -2709.7025     1759.842   0.65813066   0.38006449    1.2110043  -0.24669455   0.22704828   0.32432525  0.075385506 
  232200       232139    252.93458     2992.358    1764.6424   0.65634032   0.45973498    1.2091971  -0.23903267   0.26863968   0.35452287  0.075605104 
  232250       232189    258.68198   -418.08366    1772.1778   0.65354954   0.44161454    1.2081066  -0.23753727   0.23529926   0.37096298  0.072889565 
  232300       232239    259.05935    3243.6528    1779.4503   0.65087851   0.44027442    1.2078847  -0.23359652   0.22924905   0.37526119  0.069360692 
  232350       232289    263.23172   -2455.3055    1786.5899   0.64827748   0.42668773     1.206661  -0.22699239   0.20790492    0.3806144  0.065160793 
  232400       232339    262.88105    555.75924    1793.5101   0.64577611    0.4281574    1.2070916  -0.23016235   0.23232098   0.34570013  0.080298643 
  232450       232389    244.06035    3361.4921    1799.8176   0.64351298   0.48863771    1.2118049  -0.21225927   0.22285491   0.39768327  0.080358802 
  232500       232439    257.55255   -2254.8402    1808.1642   0.64054246   0.45166625    1.2148117  -0.23806173   0.21850282   0.39790529  0.073319878 
  232550       232489    264.86847    5795.0994    1816.4119   0.63763398   0.43109496     1.215918   -0.2157047    0.2366983   0.35291124  0.057190116 
  232600       232539    254.33444   -6360.0865    1825.8966   0.63432179   0.46388615    1.2174962   -0.2402038   0.22181254   0.41352033  0.068757071 
  232650       232589     278.9559    3543.8685    1830.8976   0.63258915   0.38763731    1.2142024  -0.23822253   0.21145801   0.35135289  0.063048929 
  232700       232639    245.02966   -1152.2115      1833.95   0.63153628   0.48744385    1.2134832  -0.20810992    0.2406412   0.39212401  0.062788563 
  232750       232689    254.88432    1708.3233    1836.2869   0.63073257   0.45929498    1.2145343  -0.21811298   0.20968135   0.39739882  0.070327788 
  232800       232739     257.0893      3894.42    1837.5606    0.6302954   0.45528584    1.2170587  -0.21519273   0.24233561   0.36106059  0.067082375 
  232850       232789    243.87998   -7219.1532    1837.4786   0.63032352   0.49494912    1.2175819  -0.22318485   0.26926301   0.37683703  0.072033931 
  232900       232839    272.45998    4642.0964    1833.3107   0.63175651   0.40829611    1.2156133  -0.21628262   0.23135684   0.32404134   0.06918054 
  232950       232889    261.36344   -3409.2005    1829.2255   0.63316741   0.44074287    1.2151803  -0.21994392   0.24057586   0.35769003  0.062420906 
  233000       232939    258.02408    3696.1145    1825.8212   0.63434796   0.45259022    1.2171329  -0.22110649   0.23338698   0.37834993  0.061959796 
  233050       232989    263.59221   -848.73998    1822.9787   0.63533709   0.43682904    1.2178705  -0.20881532   0.27141501   0.30111133  0.073118018 
  233100       233039     267.0397   -337.32227    1823.3607   0.63520396    0.4283024     1.219559  -0.23370687   0.24486762   0.33949382  0.077647824 
  233150       233089    269.42982   -1963.8449    1821.9832   0.63568421   0.42239109    1.2207297   -0.2172789   0.23631116   0.34497746  0.058381373 
  233200       233139    284.13446    1448.7558     1822.803   0.63539831    0.3787587    1.2206682  -0.23405805   0.23858057   0.30974295  0.064493226 
  233250       233189    259.40497   -3954.8133    1821.6086   0.63581495   0.45187741    1.2205118  -0.21833386   0.23768314   0.36523267  0.067295471 
  233300       233239     269.7612    1211.4749    1818.9826   0.63673284   0.41833947      1.21766  -0.22062402   0.22920046   0.33265092  0.077112119 
  233350       233289    264.43123   -5161.4531    1817.8629   0.63712505   0.43357867    1.2171062  -0.24224044   0.25613148   0.33821164  0.081475986 
  233400       233339    263.30105     1370.558    1813.9331   0.63850533   0.43793733     1.218116  -0.21878823   0.23156921   0.35832722  0.066829113 
  233450       233389    271.22167    4051.7192    1811.9721   0.63919638   0.41435098     1.217999  -0.24966098   0.24946432   0.33402745  0.080520185 
  233500       233439    245.60133    994.05399    1809.2228   0.64016769   0.49136131    1.2190945  -0.21495669   0.25069545   0.38631958  0.069302972 
  233550       233489    249.26776    5965.7979    1811.0348   0.63952718    0.4807534    1.2193505   -0.2320533    0.2438181   0.38404639  0.084942211 
  233600       233539    262.00551   -6780.7302    1813.2098   0.63876006   0.44174133    1.2180812  -0.22635454   0.24178658   0.36335588  0.062953412 
  233650       233589    266.83349    1910.3451    1813.5777   0.63863048   0.42504708    1.2156926  -0.25161222   0.24520603   0.36378094  0.067672318 
  233700       233639    259.27476    760.70674    1811.8096   0.63925368   0.44139433    1.2096428  -0.23175698   0.26046306   0.33964783  0.073040412 
  233750       233689    250.20432   -3097.9628    1810.7389   0.63963169   0.46752973    1.2089019  -0.21550637   0.24581137   0.37296784  0.064256897 
  233800       233739    255.38306    7518.6101    1814.2583   0.63839088   0.45088995    1.2076071  -0.19729803   0.24701109   0.33712189  0.064055002 
  233850       233789    255.12235    -10412.46    1824.4441   0.63482679    0.4542676    1.2102122  -0.22955011   0.26169903   0.35994253  0.062176143 
  233900       233839    264.50618     6187.461    1832.2519    0.6321216   0.42572557    1.2094751  -0.21939402   0.24511033   0.33930073   0.06070853 
  233950       233889    246.81613    -962.0397    1839.8359   0.62951592   0.47751418    1.2088469  -0.20032328   0.23882665   0.36470616  0.074304648 
  234000       233939    254.02105    500.21822    1847.8168   0.62679697   0.45872052     1.211402  -0.21512387   0.26999934   0.34133984  0.062505209 
  234050       233989     253.3685    1920.9465    1853.9753   0.62471489   0.46367988    1.2144277   -0.2131695   0.26785572   0.34274494  0.066248724 
  234061       234000    258.46743   -869.98476    1855.6951   0.62413591   0.44966543    1.2155218   -0.2104578   0.26181371   0.33934044  0.058969089 
Loop time of 108.24 on 8 procs for 200000 steps with 168 atoms

Performance: 159.646 ns/day, 0.150 hours/ns, 1847.753 timesteps/s
98.9% CPU use with 8 MPI tasks x no OpenMP threads

MPI task timing breakdown:
Section |  min time  |  avg time  |  max time  |%varavg| %total
---------------------------------------------------------------
Pair    | 23.154     | 38.954     | 54.35      | 145.8 | 35.99
Bond    | 5.0553     | 5.172      | 5.3277     |   4.5 |  4.78
Kspace  | 24.556     | 40.1       | 56.186     | 145.1 | 37.05
Neigh   | 2.6869     | 2.7122     | 2.7356     |   1.0 |  2.51
Comm    | 15.594     | 16.128     | 16.513     |   8.5 | 14.90
Output  | 0.3352     | 0.35284    | 0.41836    |   4.2 |  0.33
Modify  | 2.8363     | 3.2868     | 3.8594     |  17.4 |  3.04
Other   |            | 1.534      |            |       |  1.42

Nlocal:        21.0000 ave          27 max          15 min
Histogram: 2 0 0 0 0 4 0 0 1 1
Nghost:        2973.38 ave        3042 max        2910 min
Histogram: 1 2 0 1 0 0 2 0 0 2
Neighs:        8762.75 ave       12873 max        5609 min
Histogram: 1 1 0 3 0 1 1 0 0 1

Total # of neighbors = 70102
Ave neighs/atom = 417.27381
Ave special neighs/atom = 9.1428571
Neighbor list builds = 4259
Dangerous builds = 0

write_data   system_after_eq3_npt.data
System init for write_data ...
PPPM initialization ...
  using 12-bit tables for long-range coulomb (../kspace.cpp:340)
  G vector (1/distance) = 0.21010626
  grid = 4 4 4
  stencil order = 5
  estimated absolute RMS force accuracy = 0.0037759052
  estimated relative force accuracy = 1.1371026e-05
  using double precision KISS FFT
  3d grid and FFT values/proc = 343 8

Total wall time: 0:01:56
